Water setup

8346 atoms
0 bonds
0 angles
0 dihedrals
0 impropers

1 atom types
0 bond types
0 angle types
0 dihedral types
0 improper types

0 14.064697609001406 xlo xhi
0 14.064697609001406 ylo yhi
0 14.064697609001406 zlo zhi

Masses

1 1

Atoms

1 1 1 0 6.341000480239227 6.14092219797587 0.5855758910271451
2 2 1 0 10.79644525961275 9.471945941607922 9.435408448840043
3 3 1 0 6.647897159598369 9.461759690926637 12.411831976055485
4 4 1 0 9.733086378176557 4.861356200636094 12.62058412939609
5 5 1 0 4.458430250874564 1.178396795766943 3.5328283124856203
6 6 1 0 6.983617681657828 12.113818373742275 4.890532454888496
7 7 1 0 9.304394082111948 3.770232117702612 0.3866693492984559
8 8 1 0 13.724763406548256 8.052151863238729 6.50904107839649
9 9 1 0 9.509215437767693 1.8520063485130005 12.338147022505536
10 10 1 0 4.249291045748728 13.487059502185883 2.369447246663937
11 11 1 0 6.514213530522892 4.324959865409577 8.66532689500537
12 12 1 0 0.8490407171583123 0.7817894503545192 4.555366628894267
13 13 1 0 0.814737973727141 11.442370766536095 1.6763578746117926
14 14 1 0 4.323730191543405 7.347705649720811 1.6097745029950727
15 15 1 0 13.39869371636673 4.10567778278123 7.951120730338731
16 16 1 0 2.9712866021501667 3.449709499267483 8.846653276521769
17 17 1 0 9.941571771167997 11.172378870775825 13.392996258221014
18 18 1 0 13.117235392207492 6.25792186556786 0.2640227484391922
19 19 1 0 2.209216689156865 12.371607859976367 13.723383845156373
20 20 1 0 7.705454421450398 0.13692668496576174 3.804231511225331
21 21 1 0 10.38330017071163 2.6350206792748625 3.6532099461655583
22 22 1 0 6.042477607908714 9.94863279287967 10.5207504730594
23 23 1 0 5.594302211036009 5.138967645070924 7.238785689328883
24 24 1 0 6.493970461610102 13.794593245717055 1.3691540343949786
25 25 1 0 5.435396849760013 4.678473570048464 7.106615325596727
26 26 1 0 12.002405977506063 11.287898215830136 8.671253211042707
27 27 1 0 5.177659786610364 8.488162919894151 11.427174092576314
28 28 1 0 7.920045466601843 12.736442635221309 0.4039557463661965
29 29 1 0 7.078321169518065 12.91267789833723 7.90466375404862
30 30 1 0 11.302898075515689 4.988950416412642 13.944992229628348
31 31 1 0 2.655019126262141 7.468296500050056 10.67465778968996
32 32 1 0 13.807383062137854 5.996244915373063 11.121211018782212
33 33 1 0 9.149341107414614 10.406641958648105 12.030626442234203
34 34 1 0 6.136358305762437 4.982144561182646 10.8972903422098
35 35 1 0 5.0830866376731905 2.1406898405501593 2.9747496441729813
36 36 1 0 6.857476701858451 7.009701297752142 2.615339055032581
37 37 1 0 13.247492610164212 2.081136244638042 11.095375925289266
38 38 1 0 4.840829463372887 12.054681573227816 12.268944716485464
39 39 1 0 3.0586008850108866 0.1854319425054051 7.516055938690745
40 40 1 0 12.34989814197861 11.49644365275477 9.486419414878904
41 41 1 0 3.9465277412930484 14.04762626625032 5.197446026992374
42 42 1 0 9.665459116769869 9.191553420788768 4.833632322935474
43 43 1 0 10.245887124102845 9.578768104941025 11.972733670731763
44 44 1 0 5.499286665936605 4.309863798655552 2.2153125735690122
45 45 1 0 5.396979667670083 11.237147387231456 10.80709443551722
46 46 1 0 2.478055515824192 7.250142880644613 0.3231852479241901
47 47 1 0 10.35131068387449 7.257914069788947 12.541669450326706
48 48 1 0 10.64350272464298 4.7227040940646505 7.316439563491943
49 49 1 0 0.7439701341302292 10.461846167053327 2.715185040806154
50 50 1 0 2.4155906275153374 2.2137648363552054 9.884559939647973
51 51 1 0 2.551784019647962 5.280668591242899 7.40468290268546
52 52 1 0 4.142157353735279 9.866529169508674 13.90857186219071
53 53 1 0 2.8788656915291564 10.484147788047697 5.490256777486005
54 54 1 0 13.043878614843004 11.601163777753252 6.544349631210826
55 55 1 0 11.543494352378982 3.9192817465913454 0.4055219654215315
56 56 1 0 7.275001057404686 0.27377403104723785 9.99584919714541
57 57 1 0 8.514487081428722 12.121112654708558 1.7484100289553384
58 58 1 0 2.15502626911163 7.502603678924359 4.872099073497604
59 59 1 0 3.03014611796456 1.8832593604402987 0.9314921076014981
60 60 1 0 6.409074592601441 2.990607545514404 8.793364687725468
61 61 1 0 2.172336073661009 10.82233124806212 3.524898689722371
62 62 1 0 1.7454253031002942 8.671463691201122 13.111823025961844
63 63 1 0 11.728377916873715 0.22879248513261255 3.0292797406994483
64 64 1 0 3.185257289294937 12.03513362544424 6.553476012758079
65 65 1 0 1.3940928586924546 1.4409851777412979 10.756926115338386
66 66 1 0 13.467010563328142 8.910149184954193 11.908568980593058
67 67 1 0 5.596655900933072 10.588790826592628 8.958765280918186
68 68 1 0 10.910153175337326 9.27201120062959 9.528223049342186
69 69 1 0 0.8933023570207528 2.2075452095781727 9.814074875567197
70 70 1 0 2.2914616955715044 1.483996191228698 0.4052969072973115
71 71 1 0 2.3828258356319663 2.8136081181581303 9.888282552721854
72 72 1 0 9.46116678657616 4.242548584644284 0.7910337559887765
73 73 1 0 13.750797062218096 3.6256432133114402 10.022309753185045
74 74 1 0 10.824043880549814 9.491376893747717 2.507672211743117
75 75 1 0 4.6780266168561 9.321938355200022 1.2640963578794833
76 76 1 0 12.292473188124077 4.065065679789974 13.50904487291645
77 77 1 0 12.652415624805416 12.392328921340816 11.715510434100826
78 78 1 0 0.5580250058208877 3.5464380104405917 8.710180270692318
79 79 1 0 9.633744325160706 10.91495539947325 0.18119078887474832
80 80 1 0 12.570243160872062 8.974321276549933 7.940088465259217
81 81 1 0 12.624324211870128 13.800265362728632 5.789751460451461
82 82 1 0 5.055924665704794 7.03770631677426 0.2935797783888243
83 83 1 0 13.569066357851504 8.576510063108994 0.0856927862553341
84 84 1 0 6.924479018566039 4.543314146486831 4.323401803929681
85 85 1 0 13.90528146040463 8.850056577044132 8.171831712862753
86 86 1 0 10.266428305998433 6.997858729941326 4.545918273370635
87 87 1 0 4.40968030837414 0.7272543803846165 2.4880780373011713
88 88 1 0 1.0531419171277696 0.12914624345562187 11.762465201785815
89 89 1 0 5.22434629508389 2.820954909169566 13.855146657793933
90 90 1 0 10.250929865577888 5.11998755928194 5.995189622319875
91 91 1 0 12.157765571592405 2.5286840194766627 0.04578464786283343
92 92 1 0 1.0692469142268466 1.8248696362802834 8.155046008144808
93 93 1 0 0.20333394171855002 6.868969841863011 5.9031686745586525
94 94 1 0 9.733280150356988 10.940278471356928 9.402109252599022
95 95 1 0 11.105208386351869 3.3730458747218783 5.9490688838654675
96 96 1 0 2.1964118029540893 3.342456262459065 13.449409508823424
97 97 1 0 13.447856661965348 7.811568692671777 2.1167994389422806
98 98 1 0 13.687482056185631 11.356360819197628 12.61916590008647
99 99 1 0 8.274713438977338 9.248782878570882 7.062074472253623
100 100 1 0 8.52504975761565 9.702799242430066 2.1470608121273913
101 101 1 0 10.408251603414524 1.9549896433556546 10.278144883666515
102 102 1 0 8.212511329395806 12.737192465390466 0.2639196527750549
103 103 1 0 5.030904400441267 12.453612523048426 12.376244379134018
104 104 1 0 2.042616550412002 3.4003321249522513 3.300290799807983
105 105 1 0 3.886083852836016 9.119104611418258 9.003254761638157
106 106 1 0 0.28208335667961654 8.457497327104798 10.12798197095521
107 107 1 0 4.711783892399956 2.57012198863461 1.0544252994006866
108 108 1 0 5.390751516272987 11.20111244897633 2.4555777965729444
109 109 1 0 1.3644997922308342 9.496693595957058 5.444324417457945
110 110 1 0 3.771512538677176 2.2462237080994463 6.419452682872661
111 111 1 0 0.36926660040547093 11.66927783449228 13.604056827198026
112 112 1 0 0.9319254505845956 10.138156867717582 6.160286139228619
113 113 1 0 11.55536948838931 6.706555211345703 2.2126647479197836
114 114 1 0 14.038002152713805 9.733589844234473 3.264878785821504
115 115 1 0 6.622257133807007 6.816867434828827 7.072133328351536
116 116 1 0 8.801598075344435 2.0671573641808694 12.46856162101306
117 117 1 0 4.001806202275109 12.419001447788496 7.347105518350593
118 118 1 0 7.076373843897445 0.49245266819250705 8.069052898305381
119 119 1 0 6.324078854072481 2.7788758319342115 11.278572897813282
120 120 1 0 3.489273198064866 3.0133142702711697 4.332734561896989
121 121 1 0 0.06735162037113077 4.8061565583108 6.544903249562852
122 122 1 0 10.415630385073245 4.700184603178614 13.617838312508859
123 123 1 0 11.582918918592037 11.268075136443676 4.31032689141132
124 124 1 0 6.907457613879498 9.447843966380749 7.411727210647309
125 125 1 0 11.455829170229713 4.698438169561022 6.491900700527933
126 126 1 0 5.278280029146082 6.192305845940406 7.184122664163433
127 127 1 0 4.556808906408807 8.797834472183455 0.2865455439523472
128 128 1 0 3.420528255203337 10.686455133420178 9.767165728152737
129 129 1 0 7.320583060914295 5.824224442857536 4.902365283716906
130 130 1 0 6.669047554444903 1.4342893510875716 13.444479761917927
131 131 1 0 5.655584092308294 2.5318141298309143 1.9710453230428253
132 132 1 0 12.330861607234658 6.43022748659438 13.370892974673655
133 133 1 0 8.715666528034244 11.769831159824212 11.73166994673263
134 134 1 0 9.184388585734974 8.748192345129901 10.161779954078007
135 135 1 0 5.006951990929298 0.2628898194361943 1.6478056429821437
136 136 1 0 5.048147089882036 13.696222520311649 1.4132500576659701
137 137 1 0 1.1976762134164132 12.879327799901938 0.9771143554085531
138 138 1 0 5.036126091370011 12.83968943153185 3.660220127370852
139 139 1 0 9.632201275209248 11.093427113883475 0.6083871332532645
140 140 1 0 0.08199488909232241 1.136146724774268 0.5608796498057367
141 141 1 0 6.2227801205789515 11.076735633898389 12.182405239511038
142 142 1 0 12.358139547912264 2.7407135919813563 1.8528856598515526
143 143 1 0 12.116874625445343 9.61702311902982 7.639013364474837
144 144 1 0 7.433411534781406 11.59072947760483 6.851585630296145
145 145 1 0 0.4825680597555423 6.855079823982425 5.698049500448807
146 146 1 0 1.5831236660537347 12.2081364306749 9.907210518601527
147 147 1 0 7.465817454287355 8.925800511070584 7.067443998856558
148 148 1 0 0.5087561859630045 1.2656127491813742 12.401622089268715
149 149 1 0 4.877788532454378 9.970682501497778 7.936645671995251
150 150 1 0 8.39817720712832 9.270519147813534 3.5922984640326265
151 151 1 0 1.8347210000465126 11.563707032781847 9.627339610181325
152 152 1 0 0.22183177633619064 10.634972486973506 3.1600586403961173
153 153 1 0 5.98509595731122 13.356132570532079 7.0258440578347665
154 154 1 0 3.3443929101850913 10.367850515978636 8.129302899245241
155 155 1 0 0.27198529718592673 5.4005547893087185 7.638275287371675
156 156 1 0 2.252357973422554 3.5654720136126756 12.802441778474108
157 157 1 0 4.639001774220971 4.975817235422279 1.5833704455344138
158 158 1 0 2.835020312699999 4.746599288576399 13.746752474670714
159 159 1 0 12.320086463624708 9.57113021089195 8.750361684094804
160 160 1 0 6.552206390118918 5.244841773918099 9.39923818627052
161 161 1 0 4.159179926075913 10.739042964386192 4.093149165816
162 162 1 0 4.15216757977243 4.815986228114908 12.60665501645984
163 163 1 0 9.302655697677231 10.000182166571417 5.105044961254664
164 164 1 0 9.713934162119612 10.889437270181286 11.126353725926915
165 165 1 0 8.549710704339487 2.83346449416017 10.305286861984953
166 166 1 0 8.703681184959786 11.503393821121154 10.973141525415334
167 167 1 0 13.50347779285221 9.25455697879712 11.349695741812003
168 168 1 0 8.922502276772066 10.175821570103556 1.7352594382605409
169 169 1 0 4.334701776233892 9.931591103964903 2.4962142704916794
170 170 1 0 8.81925431638342 0.4640771108166908 5.811183522476114
171 171 1 0 11.019294746372225 0.8258343599124673 4.5689374565130345
172 172 1 0 10.409637226972263 8.269521918050662 8.11520811323953
173 173 1 0 3.9308552672884844 2.6817402935302797 13.362204864622534
174 174 1 0 7.064853952121891 2.3559983136246037 4.086425595277679
175 175 1 0 3.6344493380737593 5.355387985292118 9.244896826583064
176 176 1 0 1.7619403652835275 11.135011253880725 11.814914647895339
177 177 1 0 5.022772607169914 1.2950689968892906 4.510784618950458
178 178 1 0 2.0139855592566867 11.931194549865037 2.6668147384716447
179 179 1 0 5.3955149154611926 11.403913926528132 11.55604214217102
180 180 1 0 9.25490221442396 11.884000461238136 9.678185657087933
181 181 1 0 3.862203389167139 0.311865192087801 12.199835345331477
182 182 1 0 12.549924446285903 13.178612716650333 8.455198938641148
183 183 1 0 4.352475923153462 10.222074428111734 1.409512250064966
184 184 1 0 7.54350335807852 7.444646928925438 4.373729562004079
185 185 1 0 12.565821263865526 13.87179433535688 10.946597289577378
186 186 1 0 13.335011573061875 1.8271409117776793 1.763952658550182
187 187 1 0 7.9903488399893146 13.196084583989595 11.731336756330368
188 188 1 0 11.447975721334844 10.574073448906253 12.128420622101489
189 189 1 0 10.97003400798631 6.3714480896072025 10.81572074263481
190 190 1 0 11.183408269498823 3.0287723548433427 2.129258022210761
191 191 1 0 4.858218798095952 9.616520055813435 8.632292820712335
192 192 1 0 8.131290316745584 8.866740929742114 13.777415187776507
193 193 1 0 3.4128024163823416 2.854736401456355 13.434206828738578
194 194 1 0 10.101271701752905 5.436662200544176 2.3957546571214214
195 195 1 0 2.7385462563711096 12.413474189256156 11.87209667662034
196 196 1 0 5.681121724988774 8.768303279730057 5.458511526783639
197 197 1 0 6.50232190926988 0.5655063775485224 12.271492457727957
198 198 1 0 12.992648819615463 2.4855312172829716 10.799982046504748
199 199 1 0 2.4901853297790972 9.939966887052067 4.728839869459762
200 200 1 0 12.233712940600622 1.1144673108757106 6.535632649981733
201 201 1 0 12.297978887218054 3.4069035756666204 0.21521384894081957
202 202 1 0 12.354190954205144 12.207885093128803 13.574863004346032
203 203 1 0 10.867100992750169 11.771566282099299 12.83547085768262
204 204 1 0 2.978542664821501 10.106276845079242 10.746428305737053
205 205 1 0 8.539956749678472 7.302193926359438 11.33571578918343
206 206 1 0 6.419379140700892 8.809958711774616 11.907658082683168
207 207 1 0 11.724315192907014 10.667531575470385 8.639323248505296
208 208 1 0 8.415008654591205 1.279666291929359 2.8520769159898265
209 209 1 0 12.624999497221872 13.815944944994248 11.544513175953975
210 210 1 0 1.851699902728419 7.991524377819447 9.178051146536383
211 211 1 0 9.30031035081134 7.673300045367051 9.671756307075071
212 212 1 0 13.920540918126031 10.441581484174039 3.451542087977286
213 213 1 0 10.254091153487732 1.808907494761174 10.382180705491825
214 214 1 0 1.1770129984686595 7.528931729404588 5.587980487073406
215 215 1 0 5.248458049734981 6.6995733498194765 8.883025009856405
216 216 1 0 0.3795117051045008 7.019540343350808 11.92257542627572
217 217 1 0 10.179152812528283 1.144803317171113 4.724363734945471
218 218 1 0 4.979749468312615 6.723063811545519 2.701562601679049
219 219 1 0 3.838684012260304 0.9544150619203834 7.018181108043775
220 220 1 0 4.17016303153108 7.6491513754488585 0.6878275100522973
221 221 1 0 12.351668424696143 5.736424325864619 8.478003173023122
222 222 1 0 6.068066032929447 1.3672593320162372 8.08993737762578
223 223 1 0 4.068673638237094 5.821226909050158 4.645347139818672
224 224 1 0 0.9745522669989858 4.234946656965991 8.312039064488022
225 225 1 0 13.89485631929333 7.21882359067813 12.45061070963254
226 226 1 0 10.158419341053685 4.247755897484957 1.0682313588812697
227 227 1 0 9.524716185064529 10.137775501954144 13.592562025952246
228 228 1 0 10.725691644708329 8.993903532329051 8.316472919044696
229 229 1 0 9.544855843286904 10.158124019471655 1.9196101059230066
230 230 1 0 6.945683501392239 0.962017903217005 4.658831032944262
231 231 1 0 9.93945083209167 11.488368731469581 1.0502532460047265
232 232 1 0 10.861373113023049 10.003683634123211 6.15894953925831
233 233 1 0 2.415044653600567 6.056239050977228 10.772484072598616
234 234 1 0 13.364796802207348 1.7730554970986796 6.744028153494145
235 235 1 0 5.775474024668737 2.4529903888006492 12.915267614757294
236 236 1 0 12.836459664515965 9.564665869832258 8.659328962252372
237 237 1 0 6.519283816217524 10.219827621563287 13.924088442053668
238 238 1 0 0.2146065356867467 2.38269258478697 12.95422675024641
239 239 1 0 7.022587463628366 0.5657988235284928 9.61091812182341
240 240 1 0 3.910626589437925 2.226396749082935 3.7194588317458117
241 241 1 0 0.5260977651327741 6.611007962979819 7.397099566409035
242 242 1 0 8.769815402204445 7.34494747153312 0.5492067901810743
243 243 1 0 7.196523741887643 5.37712730186959 11.631588496841633
244 244 1 0 13.772028276459357 13.146777597043537 5.012870349323241
245 245 1 0 2.9251706925578795 2.7525314850131077 4.3234607445939774
246 246 1 0 1.6945608260315561 13.32020816236483 5.8936821505493695
247 247 1 0 1.1532846959208316 7.627998064408591 5.943266486206754
248 248 1 0 3.494799765867423 12.861903428354426 8.711988071115139
249 249 1 0 3.263525661820056 4.818613039771097 6.196843675726851
250 250 1 0 10.476500699948414 3.216476646768684 12.45749106821622
251 251 1 0 12.016773896517758 5.382423258455068 7.8490442303054015
252 252 1 0 6.44686797828373 4.382610366504828 0.5326207849490014
253 253 1 0 0.8332094671070283 6.952623563773052 8.615130091801708
254 254 1 0 0.41621519713643945 2.0820273875595072 12.21599876163538
255 255 1 0 5.282773225757622 6.763941100669713 6.4158077063302485
256 256 1 0 1.3352136458547068 12.430697274359476 2.3142953949428184
257 257 1 0 10.23578919467689 0.7542325654361796 9.621470669611567
258 258 1 0 7.679813444128348 11.77801733938852 6.876135930681074
259 259 1 0 8.670311187714733 4.729456184714436 2.336431700201126
260 260 1 0 5.649362788670929 13.617027437070096 13.373405700712725
261 261 1 0 1.7759742833089993 0.9166001983473603 5.971336232969731
262 262 1 0 10.583200212173479 10.104796892561858 11.995197826111605
263 263 1 0 8.523897405755163 11.960831502592495 12.52591824215341
264 264 1 0 6.709752115544642 3.273436476828291 8.194585585683317
265 265 1 0 13.914682366288348 0.9452225589407471 12.031210728135967
266 266 1 0 8.560541218581793 3.2389658898413067 0.7054185263302052
267 267 1 0 7.933752292058193 13.99980430711964 4.812946677726195
268 268 1 0 1.8810050766612465 3.480161199675135 11.577953314728815
269 269 1 0 13.204269003404585 0.33257618183963944 9.962289312908812
270 270 1 0 6.025255004275386 11.40858641643531 0.4538298571234591
271 271 1 0 12.289372222998983 5.360729732902959 6.031963970953828
272 272 1 0 8.706098345416098 3.6837689302380516 4.210157682695007
273 273 1 0 13.971870938945361 10.69490142232707 0.8915022978733163
274 274 1 0 7.55462001955134 2.371401044203481 13.11342747324906
275 275 1 0 3.5315335640164456 3.193353603270059 0.38987243619079526
276 276 1 0 11.482112744341444 5.412641907354727 10.273359691453175
277 277 1 0 4.900736379352466 1.504837537798802 6.559898365334769
278 278 1 0 0.2012961873706994 13.563307337674694 9.729395628271414
279 279 1 0 12.427906787708482 0.7691266774754089 9.552238758790285
280 280 1 0 12.918923151900398 10.080298459079794 0.6954401472233195
281 281 1 0 8.403350217107382 5.2416808660929215 0.39493426224043315
282 282 1 0 1.9514743950048263 6.840779267762564 6.211602717080162
283 283 1 0 6.158900512181092 1.4887284085319135 3.6191466920029987
284 284 1 0 2.9148373606824287 6.324065399366957 3.13334269201626
285 285 1 0 7.575464966602362 9.013425036136656 11.865556516563995
286 286 1 0 6.157279464283645 2.2702624598444032 13.642787301598867
287 287 1 0 12.966549851573593 14.009554377900422 3.8325440521572887
288 288 1 0 7.600006048566218 1.4735099702288095 7.627313356458424
289 289 1 0 12.852271855814086 7.9076082615357945 9.405444272247705
290 290 1 0 10.079172418081429 7.79507913610287 6.777802122896171
291 291 1 0 12.842229507674578 2.2995734548274007 5.270817029482097
292 292 1 0 9.499399367474917 0.8980205839197868 13.71310540654868
293 293 1 0 3.8752466132509773 12.245602178645907 12.984128863471488
294 294 1 0 7.733243108978527 1.4324126299753546 0.0802247280847382
295 295 1 0 13.859100979165408 13.755674910450221 11.43205678167924
296 296 1 0 3.038262354108229 5.9278669922426035 3.963768755572702
297 297 1 0 5.768571997419006 11.369144258581251 13.615024162759825
298 298 1 0 13.499590737602938 0.32342479796446144 9.5137852564213
299 299 1 0 6.19118942602685 9.1371196811447 13.110538002217279
300 300 1 0 4.884027254289977 8.930371436444945 11.133881572872067
301 301 1 0 8.517456723988294 7.002272837296869 3.7711606738314445
302 302 1 0 8.23053848298549 3.110100987879839 10.778443557637134
303 303 1 0 9.318402114061533 3.091494949862326 2.6540148352311568
304 304 1 0 8.487991718342235 6.65910899004497 8.661989129141817
305 305 1 0 4.211008695945854 12.235199732635532 0.534897389616645
306 306 1 0 2.166700790729492 11.93580885741914 5.2819858606003525
307 307 1 0 3.363175469724081 0.2243548470499404 3.589462860406567
308 308 1 0 13.17857282324543 6.007317696417651 0.13428082186904147
309 309 1 0 4.793461008050294 1.7659092582209361 5.219070682252093
310 310 1 0 12.218890292483813 12.99412330307603 11.262391944467783
311 311 1 0 4.396684546420198 6.616162185905874 7.2318303479984305
312 312 1 0 13.369378053032978 9.934491668522835 11.925696022895298
313 313 1 0 3.46789605578585 8.553220260776447 8.193886891482498
314 314 1 0 6.122960475063835 2.006720043140504 5.910925699227966
315 315 1 0 11.308757518681329 1.6016924816485112 12.324899486352585
316 316 1 0 8.95954591925947 1.3426508208807078 8.748965862900512
317 317 1 0 5.783264526789857 12.629087493146924 2.7968445276314804
318 318 1 0 12.915875392240016 10.03060037633579 4.605848079034889
319 319 1 0 7.154509607237831 4.6446226754115845 1.2478881461997813
320 320 1 0 5.303022765118002 10.164705274049153 12.367058979174026
321 321 1 0 7.677455200201308 1.5692271679075829 0.39730317854787467
322 322 1 0 13.700410621729471 7.994497541747864 5.352244048247152
323 323 1 0 12.247870103101366 0.9454769286000447 3.708356269250426
324 324 1 0 11.252443886245683 0.7776883673030859 11.181474459496592
325 325 1 0 14.013958639495451 11.164407834681045 3.5232204395516997
326 326 1 0 2.1810189629515118 4.757441906963675 11.637640924631636
327 327 1 0 11.675122360624247 6.994879721589586 9.70386236043072
328 328 1 0 1.1971242483539695 0.5897898901441682 10.108545746701852
329 329 1 0 4.004624879897085 7.813641293556107 6.195701294756499
330 330 1 0 9.967322944796534 6.72622384358017 3.7310122248956192
331 331 1 0 10.928387191866685 10.914926593997322 3.519128033658444
332 332 1 0 2.189992598146519 4.310029033551224 8.780076786993838
333 333 1 0 1.557229694308456 9.713305913272452 11.4485073209528
334 334 1 0 13.539549388375885 0.059950914875972344 1.7602359944723844
335 335 1 0 0.964592924154743 11.380491432777877 12.611657046533464
336 336 1 0 5.215265568263601 12.200123759185486 3.928181413571721
337 337 1 0 10.452468498755884 10.62711369639926 11.639574611907827
338 338 1 0 12.28487837448921 2.7510510370744456 4.090923789688821
339 339 1 0 2.716159311538608 9.357754283750202 8.030107765865976
340 340 1 0 4.703119410057083 13.513365921549278 6.8264298352843165
341 341 1 0 5.01580328010953 6.089375654499261 1.6978076521225547
342 342 1 0 8.036720249927857 10.697448227477183 0.2350197219466795
343 343 1 0 13.23618022163102 7.169335567946846 8.136537389288684
344 344 1 0 12.23901740122823 11.992354733839257 1.015943481521008
345 345 1 0 7.8110602575556 6.426005579618567 6.767853779779708
346 346 1 0 6.76860752801711 10.937842815165634 13.643076515466921
347 347 1 0 11.699106317107779 5.057424924396011 9.738759145147705
348 348 1 0 13.670369824290693 12.74823127031856 13.699706033277263
349 349 1 0 1.7166417077945546 9.51359730290621 12.215624412198348
350 350 1 0 1.0936340583469417 2.907848953057956 6.770781088121578
351 351 1 0 2.703971465814166 6.710342471682001 1.077758764589059
352 352 1 0 8.77615853390337 5.593884611419094 1.0582864006949844
353 353 1 0 5.828925994808673 7.521897527646705 11.608099403219619
354 354 1 0 10.861790123036654 6.396552328906289 12.100968616283991
355 355 1 0 8.518804563532987 12.888958299701725 8.35919994923244
356 356 1 0 0.38259372731707286 2.92875414632257 1.2226478821604736
357 357 1 0 8.774954465647339 0.2720968553405879 0.2838758668135509
358 358 1 0 1.7810178415188396 2.8159688046001503 1.4690097479034936
359 359 1 0 9.5236135267827 10.998956478290578 5.902734973537035
360 360 1 0 7.243575744005327 7.813257019796973 7.039730003166872
361 361 1 0 10.731815412969404 2.3669622735368634 13.398942099253558
362 362 1 0 6.018335670582899 11.8868565794618 10.342553250438161
363 363 1 0 13.901615704122724 8.825806186922645 5.704644420741914
364 364 1 0 10.049065881032067 5.0503104146317925 0.5232375513689738
365 365 1 0 1.7381152365876813 8.650470082364098 3.793713307716749
366 366 1 0 8.871204880699054 9.45993593262915 6.570264325119463
367 367 1 0 1.7834403107511123 7.0051850645683 10.31854022092706
368 368 1 0 1.4923495838057068 6.218854299305044 11.606559142306411
369 369 1 0 4.060047706932092 0.11079408811166065 13.404489107372333
370 370 1 0 13.116474702519488 11.049724312004454 1.3067009543898616
371 371 1 0 12.196510102804249 12.36103122786886 9.18566929262226
372 372 1 0 13.68011664594442 0.7781274404695013 9.740008296818008
373 373 1 0 3.840082255744548 5.686684976213551 9.604128182991035
374 374 1 0 6.293126448119131 5.658758858189688 0.09849140990327522
375 375 1 0 3.3593387298254562 3.4200947635052894 12.43775751200255
376 376 1 0 6.938376423303375 4.646696043272332 10.304268612974575
377 377 1 0 1.4515213509561855 11.036719570393455 2.2414330983144217
378 378 1 0 2.0680952116275324 10.820155256093118 11.427603271154442
379 379 1 0 8.232243857428669 7.269064755953888 9.035205434867285
380 380 1 0 3.540090476825594 4.36264118330367 2.8685614768957284
381 381 1 0 12.8036396815231 11.445102226919463 9.961096414682938
382 382 1 0 6.8533723706308995 0.8503199978258371 7.860468378117904
383 383 1 0 6.305085169231937 7.696822147350539 2.342760246005969
384 384 1 0 2.7496833209238196 1.5743995148416996 6.274125463338454
385 385 1 0 3.564861285853487 9.51822014963159 5.524383954630839
386 386 1 0 6.718768938679865 10.39788172475013 7.480903038189487
387 387 1 0 3.5104876531055855 13.481468777548427 3.6405200618564835
388 388 1 0 6.440403164390631 2.3498308651649773 3.840464836436001
389 389 1 0 4.855615514465248 9.024222518024297 10.39180430978517
390 390 1 0 9.34777807280663 8.188895694469027 6.873567019217044
391 391 1 0 13.135882127184525 13.25993125837914 12.253935614296259
392 392 1 0 7.564662660820941 0.38111313405831754 0.2134584567430579
393 393 1 0 11.322809298152208 8.834196766307853 6.4058423716672435
394 394 1 0 4.815692940042071 2.63839261358104 2.1127049270800256
395 395 1 0 3.5885746960197396 7.720298319205266 11.021665524724135
396 396 1 0 2.015653255294388 3.7334420721720543 3.3230464371583945
397 397 1 0 2.7208239769892617 9.526952863849916 5.695747890690453
398 398 1 0 7.726741600509936 9.34821029959869 4.309137534791858
399 399 1 0 7.933762983200148 3.153779553835652 5.401394482381923
400 400 1 0 6.12273187383941 3.792051188395272 11.78303362208905
401 401 1 0 0.9200570851513337 6.404994710510796 10.266830542575743
402 402 1 0 8.425608575773724 11.927256153166308 9.471214044059435
403 403 1 0 12.933308960835713 9.162386667882322 1.5467685426729187
404 404 1 0 7.081061539768793 3.7115148317787576 10.134563291753649
405 405 1 0 8.160683299696306 3.759811436166075 3.1678766095495616
406 406 1 0 10.844856416230312 7.856352331942391 9.02806555952166
407 407 1 0 4.184896585974091 2.0550349900340428 1.7634554267112534
408 408 1 0 3.5452002496821984 2.4010073884147745 8.541974737978755
409 409 1 0 6.82057896461671 7.989602492032027 0.4941116592466702
410 410 1 0 6.1136884119028885 11.701789052193655 3.204170549457863
411 411 1 0 9.6968655326815 3.1346533455355616 11.656949779197056
412 412 1 0 4.2758783994886045 10.964465941837869 6.966191012695077
413 413 1 0 9.21152986800742 1.7843194378772735 13.191847491390758
414 414 1 0 4.913982952467108 13.027308473792173 8.662359192597773
415 415 1 0 8.677677636496124 4.452130278528988 7.2700111948241135
416 416 1 0 3.8520026395026568 1.3652978526468045 11.975664012067604
417 417 1 0 11.721222373050168 5.233998218567504 12.580111500115397
418 418 1 0 1.0089082915019028 3.2977678884382855 0.9120905643636422
419 419 1 0 9.215093428493581 4.423615598411965 8.311065055823113
420 420 1 0 11.233252200981694 3.4029269017681933 13.822596611108553
421 421 1 0 0.30455502458730294 8.992768783202292 3.226151596622029
422 422 1 0 7.549647761447653 12.579873527508413 9.16073108988266
423 423 1 0 3.9889901639018737 4.32142663762572 10.42384117636874
424 424 1 0 6.919334161502426 10.470288038665199 8.744273452470228
425 425 1 0 5.064019706589743 6.701966303008381 5.774523575033524
426 426 1 0 3.359241943898098 2.2348408941061564 4.826857495697436
427 427 1 0 11.064647997381657 4.431656654972866 2.3731738073708137
428 428 1 0 1.9405652290265543 1.2156596099351846 10.820726614339026
429 429 1 0 8.229400074589352 4.902344970824536 8.82640440500007
430 430 1 0 7.988591920864289 2.2670537463760843 5.268344853363035
431 431 1 0 9.74162721285484 2.9798663043519658 4.162717253822665
432 432 1 0 6.844459984791821 13.683951243758985 6.591002822622782
433 433 1 0 2.3516822260543666 2.247819281692424 8.53649053377511
434 434 1 0 2.8598698878480664 5.232304016023646 12.828769119806744
435 435 1 0 5.097410193748672 6.648986517376018 11.959394529599372
436 436 1 0 3.657081488203497 3.178792994311863 13.988140506064221
437 437 1 0 0.74431963970564 0.21955699899127845 8.410339820229476
438 438 1 0 2.3536351605518364 9.721055373954025 2.7074399877106567
439 439 1 0 7.72313385097985 8.245527203699549 7.622531256080341
440 440 1 0 12.265047284818218 3.5234425299457497 1.891941493201079
441 441 1 0 4.489662831840543 13.269501848429643 4.202016408501986
442 442 1 0 11.01474994429322 0.9005534386574542 5.127176753754648
443 443 1 0 1.5357765401603587 10.699195530294844 3.2329800234267068
444 444 1 0 3.0178750332180173 2.6157711487876094 1.0874230638525144
445 445 1 0 5.36897466377614 1.1540084479628692 8.339490685239701
446 446 1 0 13.560128193103662 0.5651977315216784 0.9608489765126629
447 447 1 0 2.6906593000438117 2.2225807445917254 9.0161900702241
448 448 1 0 11.635087079749274 11.906017354743039 0.2840053483320866
449 449 1 0 1.002350167289903 12.39525602525914 12.193362225909055
450 450 1 0 0.8037648003743205 4.119167244163612 9.154306437758974
451 451 1 0 11.954950197121017 9.782129691738259 3.096282260347221
452 452 1 0 11.0629452690926 0.8457103597184825 13.41565491039533
453 453 1 0 2.2383483862615177 0.12063546252146383 4.824365307908315
454 454 1 0 13.469335251841805 13.492629118489855 0.024160935005086384
455 455 1 0 13.498034110602795 8.734803565527262 11.672401433191112
456 456 1 0 13.065870187830873 4.468123147802896 3.0947866076610224
457 457 1 0 1.1520023715027419 6.474325105303415 4.7699324100729035
458 458 1 0 1.5249150819146144 2.3629390327394044 11.962176224226043
459 459 1 0 9.20903909562233 10.568799008126735 2.564831040767802
460 460 1 0 5.457348677972869 5.810789653706438 7.069309837382577
461 461 1 0 12.47138096959812 5.101816816336758 0.607157640778235
462 462 1 0 9.270376452744488 2.3153951724163466 7.445281576169513
463 463 1 0 4.481546656989572 2.0569638961430856 4.975517400830899
464 464 1 0 4.795751615914601 10.882249294584966 0.3738930767947195
465 465 1 0 3.171811604185388 4.666309642579161 1.526997407023079
466 466 1 0 3.2472370579990733 5.865974260589948 10.811107504017903
467 467 1 0 2.883907353511793 1.4052308379937601 11.297280886028354
468 468 1 0 3.6591084309015285 1.8164675617101187 10.482123508978317
469 469 1 0 2.1505505822764786 9.264037548997603 13.214398876114412
470 470 1 0 9.397303368696225 1.395993135423707 2.147021598611909
471 471 1 0 4.856758693603418 2.964081363244302 6.00083036144479
472 472 1 0 6.706365895042552 0.10529644241228518 2.3375531737725432
473 473 1 0 2.6957443405137327 4.949738478544432 7.637535799876508
474 474 1 0 2.1253844920988616 4.628406767925072 10.204704713866207
475 475 1 0 1.7343323067382392 7.0843922135680275 10.301888135916995
476 476 1 0 1.2145233642783622 6.521215196432438 8.397334980629013
477 477 1 0 7.802858169804971 5.126294533669647 2.163201668089715
478 478 1 0 3.356794508369433 2.691837154005523 9.968560473538894
479 479 1 0 1.408155759719184 11.296666675654409 6.891897227220102
480 480 1 0 13.630797849281052 13.606873704604924 0.5015722655537826
481 481 1 0 0.006975873636126265 13.252597051741688 5.133654811236524
482 482 1 0 7.078733447235925 13.441264338413792 4.4959290015763465
483 483 1 0 10.092191173767619 12.381414661031295 5.944917970222966
484 484 1 0 6.745015537905342 4.779216632080746 13.10633650941556
485 485 1 0 6.258977909546167 6.916828846377992 8.920204297530756
486 486 1 0 3.724959462531625 9.104212056594069 10.844272807230768
487 487 1 0 1.711551126456326 3.818036787661942 0.5778851913395158
488 488 1 0 2.431072479870056 7.91640707200073 13.529172780929859
489 489 1 0 3.6181952353656883 12.01415509486265 2.662825110803067
490 490 1 0 13.356946039017359 5.686570388782981 6.656506523846094
491 491 1 0 1.7571942462561896 1.970696456473637 7.875047380204793
492 492 1 0 7.94964968536124 11.922287323392426 1.4017423167008796
493 493 1 0 2.9328089316145394 5.635270023381167 13.498095897372906
494 494 1 0 3.1659210460179468 10.768662913671257 3.4028708178728313
495 495 1 0 13.092760506109189 8.36369818722333 11.206958517615556
496 496 1 0 12.827546773121098 9.115120923915377 13.478992843581993
497 497 1 0 9.113980652404946 6.685246158125202 11.267465070394119
498 498 1 0 12.19010371266093 7.272832353863626 9.21523723788925
499 499 1 0 11.190816707407498 11.329464794527345 1.8603904453719469
500 500 1 0 3.362745058520656 10.819385291159492 9.328822227902405
501 501 1 0 5.65303417096443 2.612646191139969 1.1662910254659473
502 502 1 0 9.138980648553664 3.4501586302031524 2.1159451645733665
503 503 1 0 12.220440200249998 5.863146379462226 1.6266407609015228
504 504 1 0 4.412396205761055 7.5771859318037285 6.952657597597514
505 505 1 0 1.8211142820616981 12.144077064170922 10.099143362173395
506 506 1 0 9.818717673400831 11.184190421910804 4.888961133944014
507 507 1 0 10.534446925403827 0.110863460500082 11.23914968959027
508 508 1 0 4.906740747838588 12.59317759130475 3.373543239871728
509 509 1 0 4.594878175499482 3.852539725023529 13.199715253187934
510 510 1 0 6.890288677757971 3.8303968007112013 1.33732777318514
511 511 1 0 7.702855592743366 4.248593815843443 9.525369716062366
512 512 1 0 8.682535334730163 13.289595076460632 0.9199811670107926
513 513 1 0 2.3499854311061923 2.9010116599137388 4.46323164042384
514 514 1 0 9.806731448060862 6.807915434312651 6.329639307065484
515 515 1 0 8.988823461764074 6.70023408873452 13.609042926202438
516 516 1 0 3.6241132188694736 11.116052114594204 1.1446521418428797
517 517 1 0 9.755535026169696 12.34921181435582 4.622760617416565
518 518 1 0 11.795352623713107 5.605832443169511 2.9551177933172883
519 519 1 0 9.203765773448623 2.6854341421174475 9.13203967918189
520 520 1 0 6.8837468511436235 13.73217357589813 10.361810398573704
521 521 1 0 4.793549628571833 11.960469053453144 10.673012057530398
522 522 1 0 9.330184272994208 11.357321896951161 12.177437852212792
523 523 1 0 11.049422984809539 9.48780722430838 9.071689330961027
524 524 1 0 3.6545448232862907 4.165745582261018 12.595824313193885
525 525 1 0 8.459230061461817 7.0838664173612225 10.048744098213954
526 526 1 0 13.21744533830196 14.037904647615274 7.281237577517894
527 527 1 0 6.081577975683864 9.066041700393003 10.807456187456179
528 528 1 0 12.424688661439063 3.0284463535896293 12.418803248877694
529 529 1 0 2.703705983093733 5.668530230142138 3.3265354082620497
530 530 1 0 2.495926149628926 6.380042510071759 13.550617785347324
531 531 1 0 2.87386462989499 3.305259809098101 6.161644623459535
532 532 1 0 2.745956132448675 13.380963186229918 9.177634891713028
533 533 1 0 10.384459199325754 0.027401346340290206 7.779522943193628
534 534 1 0 5.546385476509626 9.054401361139066 6.323193778255369
535 535 1 0 6.73417400412454 9.959514078664832 6.002883941708093
536 536 1 0 1.548105341412613 8.55261101379468 4.591913302735664
537 537 1 0 3.90083237755626 0.6905458181850338 0.33443586151241556
538 538 1 0 10.66033821200796 7.477303458565809 13.051552306006293
539 539 1 0 5.512197430028334 9.444652493178346 6.92416622895295
540 540 1 0 2.459053046010749 0.40010781453157845 8.161052417357327
541 541 1 0 6.288279780481141 5.471650905282738 10.106400532160224
542 542 1 0 0.21272914399264134 3.3040251311151523 4.334237479019238
543 543 1 0 5.509579306911969 5.951957817448557 1.082412868732307
544 544 1 0 10.483195920209896 5.187689096042761 9.138503740652954
545 545 1 0 1.4819277248885203 12.405116959188017 9.988860539913041
546 546 1 0 9.19751251443522 11.41569113929592 1.5512109199750406
547 547 1 0 7.770886416965342 9.823707921389742 6.518184491320622
548 548 1 0 6.342895147267303 3.674630862853431 11.952099045002106
549 549 1 0 8.136140000911032 9.070871565164785 3.431535992483588
550 550 1 0 10.109660097645817 12.520724086934282 0.7647251028681916
551 551 1 0 8.360043065019509 11.79634509934656 13.244514006010494
552 552 1 0 10.151227667401407 1.161739702303007 11.313095115965545
553 553 1 0 8.195066549443576 10.511585396924511 2.358261217862569
554 554 1 0 9.21510046018614 9.38753958260482 9.635275896537472
555 555 1 0 7.035545823307521 3.2147380401094416 10.066855464513342
556 556 1 0 10.615652622412666 5.476030472568342 6.661160215614838
557 557 1 0 14.04089572803572 10.89365599970421 12.232679187922464
558 558 1 0 2.188907703729549 0.2754002357077245 10.313715357148087
559 559 1 0 7.289447346251557 11.772641895716339 0.2934577349479639
560 560 1 0 10.940384368079162 13.624203497246032 2.1354996781708504
561 561 1 0 8.110132477397933 7.543107419970284 9.183397836957981
562 562 1 0 3.6288204638799773 12.369588373920765 2.4389147956268618
563 563 1 0 6.276970499923159 8.885507955710576 0.7592810036008709
564 564 1 0 10.02201632880041 8.755435977160335 0.8594827376756661
565 565 1 0 11.189914985242202 7.873180426389687 13.593106673752835
566 566 1 0 1.3211858456849255 7.85249192744197 2.343674831848045
567 567 1 0 1.457687989433902 5.164549430746317 13.633990868800334
568 568 1 0 7.623609487746571 7.9078877377449786 3.621902142529857
569 569 1 0 4.07201447355905 5.007043436172136 7.427735272553557
570 570 1 0 10.149521354633134 13.695341252192625 3.4578115148228883
571 571 1 0 6.009964925639175 6.172190176702717 10.52308760715287
572 572 1 0 7.336928519326311 0.5293213323440107 7.31422995563452
573 573 1 0 11.680468639910353 0.11965922525430493 12.161552995029533
574 574 1 0 11.801998414386473 3.8891581318236383 1.4377276750530494
575 575 1 0 2.21383706894974 7.197176526384904 5.6535667487814685
576 576 1 0 5.997850998206571 9.934764908708592 3.581353959109957
577 577 1 0 10.441760202398884 12.807345812164515 11.172435497236812
578 578 1 0 12.128702276794042 10.87938950149892 0.9542503105781648
579 579 1 0 5.09176219182809 10.514362735807405 10.976592228433418
580 580 1 0 11.08072100489813 5.66664013034567 0.9302655334668778
581 581 1 0 1.0520177109813393 4.4464005282751975 13.30461027224895
582 582 1 0 9.921761040700293 11.200012348557577 1.00037228736215
583 583 1 0 3.7188208235901645 2.591829771121071 9.809153924494888
584 584 1 0 8.401869554631041 3.2611115365602665 10.409628412328251
585 585 1 0 12.217762194577547 10.337733910218642 10.592218984140587
586 586 1 0 3.2775499112893303 12.464939933863102 2.665727145824793
587 587 1 0 12.529686385985311 1.0126966239784045 13.472142929809833
588 588 1 0 4.5267036358862365 7.910565553414808 13.993408133292629
589 589 1 0 4.478053814558564 2.3660494118716735 6.257427023146759
590 590 1 0 13.728268158451545 0.7076394726806874 1.17692299559153
591 591 1 0 2.367607655314697 2.6070091004592837 8.237118594039165
592 592 1 0 1.039527219470672 2.3388894791874235 0.29191938457041006
593 593 1 0 9.893493553164337 10.290392130130922 2.2766756639572443
594 594 1 0 9.534276817134337 1.0590917944366878 4.694366220837397
595 595 1 0 0.7507698788896354 6.771400010332138 14.00917139521522
596 596 1 0 13.554857620211891 6.4014059812307975 4.649664580287656
597 597 1 0 13.83233353915702 11.044736395309837 4.334063842638439
598 598 1 0 2.24441024546333 2.272605155494334 8.393541650302115
599 599 1 0 5.583097629323891 5.255608128378959 7.89018517660549
600 600 1 0 7.794313675770376 2.012941457207386 6.0005981675453235
601 601 1 0 12.214252837933302 10.630575889537132 6.101017016526573
602 602 1 0 4.726245646959515 11.169914230900904 1.66062468805042
603 603 1 0 6.817249883744585 6.813834791203738 9.28499321819448
604 604 1 0 13.363137814083997 5.642740708924848 3.310103292232547
605 605 1 0 8.45697581516171 13.898176710744696 4.0736765056323785
606 606 1 0 10.235079288418461 8.748261900980692 2.949505244133794
607 607 1 0 5.060769829850264 7.763456411029556 2.4920391380434146
608 608 1 0 4.595819611930057 13.98216147477768 10.515260209124131
609 609 1 0 2.36656768476592 12.905277308102773 7.671728644442916
610 610 1 0 3.2061781817938453 11.77324482336371 3.3456764597571116
611 611 1 0 12.817843499228342 8.777817225423032 8.68313998097724
612 612 1 0 0.8401736979326304 4.720946515217195 3.8733306515301655
613 613 1 0 2.479111888697603 11.571879352098632 12.624389136370255
614 614 1 0 13.482436685548329 2.791340331444417 13.265377536645826
615 615 1 0 10.611800235953 8.022564650660959 11.386743660846152
616 616 1 0 8.763681546946911 4.493183846465794 3.3489844175882193
617 617 1 0 8.330197026682736 8.231465433891143 5.329464997653307
618 618 1 0 5.594252913499081 7.5174672423541065 11.394813570018492
619 619 1 0 4.066346325699143 1.9984292400426067 12.19794098370382
620 620 1 0 8.21344712570579 4.937278953689419 8.85194018179687
621 621 1 0 2.2391777459075577 3.1701139627800834 7.39736137733024
622 622 1 0 7.322267235789309 6.7063209156172325 5.236707267725512
623 623 1 0 8.624959860203829 11.377958980707136 0.4398477567423507
624 624 1 0 7.022990428815103 7.986532968270284 10.971447490477457
625 625 1 0 11.235634299004694 10.488054452174872 5.18604312213974
626 626 1 0 8.503378409541844 9.737529769124341 12.473022323719823
627 627 1 0 1.2761595992230594 13.902209667610492 8.99638302503973
628 628 1 0 10.088062799794411 10.057152714874965 9.288356871349375
629 629 1 0 4.532382914905113 12.355394918011365 5.644605341654832
630 630 1 0 11.327791546730355 7.773368099394922 4.6381809606578415
631 631 1 0 2.358822788378454 3.649805072104152 3.79332982686428
632 632 1 0 13.934823193787551 5.209099160654321 5.861855934967873
633 633 1 0 12.884341482999188 7.635572597580386 6.20385532939107
634 634 1 0 1.697513685026724 7.64349559572632 13.878598411672698
635 635 1 0 6.637709944484265 10.504262109534329 0.0750207690490492
636 636 1 0 6.590900218700171 1.104663297426218 11.895291050159356
637 637 1 0 8.809565321726465 5.171307147546103 0.04957506341948674
638 638 1 0 2.7049916421879243 5.567235261373629 4.55771016951509
639 639 1 0 3.89546880299015 6.374373641441723 1.2671059227926793
640 640 1 0 0.05443175830710554 5.1915059371507075 9.216830198971603
641 641 1 0 11.691431426621236 4.284553373545949 11.893034181627334
642 642 1 0 9.185696255194705 12.058784373823183 5.35554381267665
643 643 1 0 13.095307477868225 8.488425877882394 5.915145525905892
644 644 1 0 2.005626354187606 0.8917506219284075 7.390490930883378
645 645 1 0 10.657326967530937 7.754189084858478 0.913306123190881
646 646 1 0 0.17454566716634828 6.751632178477287 9.030182440748773
647 647 1 0 12.245422889696982 11.797383607461319 13.931637130418926
648 648 1 0 5.927764862772199 2.9930351676183222 12.649498741066838
649 649 1 0 11.26308697124026 4.847726436347357 8.744820168799354
650 650 1 0 11.745465283178408 0.3338984365165613 5.651068486956476
651 651 1 0 3.2136225579474917 13.037524246680997 6.4975218271317985
652 652 1 0 9.18948724658924 6.870986344382008 7.116906409236281
653 653 1 0 9.672674358274111 8.189273407954934 5.661155114848049
654 654 1 0 6.332217966048153 0.060718021238832305 6.4651570324161005
655 655 1 0 10.880119080996474 13.6526504784369 1.1662551558649714
656 656 1 0 12.861854641443236 1.0806019569187082 7.389711972015473
657 657 1 0 12.43470376054852 12.52085939755997 4.2679919459451074
658 658 1 0 4.978127150067428 5.067649491721142 8.225626305875437
659 659 1 0 12.432245037630482 11.943618766338638 5.710413320533955
660 660 1 0 12.10531598645416 1.042859727248731 8.278781749978679
661 661 1 0 2.154679178051138 13.357648285150875 9.130275817021868
662 662 1 0 13.724171565637025 7.411711064631863 4.694207661893333
663 663 1 0 7.426823783420786 5.349321121592863 7.278863486839889
664 664 1 0 13.920380286057998 6.232631081513339 11.628597925189597
665 665 1 0 9.675120329680075 10.300225461547072 5.353249885993837
666 666 1 0 6.036135222957795 4.480043169084144 9.708689863815055
667 667 1 0 0.9160600833006953 12.28028502549827 1.4030842021845393
668 668 1 0 5.548180021930121 1.6625688900012632 0.907602822960979
669 669 1 0 8.815274333883258 10.149461867676774 1.0472217260062262
670 670 1 0 1.712064193264035 4.2255090424797555 4.661897218372648
671 671 1 0 5.482909654621918 3.9496573451517727 10.836162250203161
672 672 1 0 1.0652211962961553 9.56349137718899 9.482505506860706
673 673 1 0 0.7974609871705017 7.1810483718112295 6.589693847002746
674 674 1 0 1.4037963315768331 13.166935814288177 10.625416807299226
675 675 1 0 3.373824489237035 10.142169231130262 10.38153921436124
676 676 1 0 1.0773512566988608 0.49651011839562603 3.919089260146526
677 677 1 0 10.082473702178593 1.7139691982991712 10.910677710154012
678 678 1 0 7.583203961099519 9.841156497931763 10.981277377474669
679 679 1 0 12.036229668763594 5.446254920163267 10.402161597818115
680 680 1 0 13.050608544898642 8.247257164378402 13.50245095590896
681 681 1 0 1.4946124881611842 0.3016601753390207 8.698252095956411
682 682 1 0 4.678971044725641 0.5661922718329935 1.2807165302038963
683 683 1 0 11.132926886968143 8.374881688105438 1.2645198887593707
684 684 1 0 1.9087993261109057 5.789482968075827 2.851332154843541
685 685 1 0 6.522884781189748 7.567083998661168 6.629366541517598
686 686 1 0 10.267886508693648 12.424333807219895 11.604068942644448
687 687 1 0 2.55059615172445 12.735228472220456 5.9799916464540726
688 688 1 0 2.8705712091128217 8.363270024901954 12.752137332416646
689 689 1 0 3.4344501468805064 9.019156919045649 4.132550779164386
690 690 1 0 0.3127974880078729 6.95751634304274 2.5578013185809145
691 691 1 0 0.24536366228435597 11.912839257203181 7.722593129012803
692 692 1 0 13.127496400176902 10.829618279577375 10.224241196242026
693 693 1 0 11.981483040771364 13.450955858966541 3.22149042407429
694 694 1 0 2.739341102496196 8.68774251006207 8.987867226508927
695 695 1 0 1.9424375864322883 4.6411963435563 12.976736057054264
696 696 1 0 0.43428638402681546 12.396528121153427 11.465578043403235
697 697 1 0 11.124702854272114 12.981452338930584 10.70355636678
698 698 1 0 13.89497725914544 5.438688726457445 1.7558691404434017
699 699 1 0 0.5780715883765959 1.3335097121704338 11.697985822542162
700 700 1 0 12.108771338781791 4.987573087542133 8.691901098390474
701 701 1 0 10.866836678983066 1.6457551555171366 8.733894632120593
702 702 1 0 3.388336416592306 4.632539497210386 12.757942340391894
703 703 1 0 0.9197817917346429 4.232456276218288 5.079364614181927
704 704 1 0 8.525148658244339 5.242790189425148 2.4362800103244724
705 705 1 0 11.415480248995845 5.651031697165846 4.5994047436890035
706 706 1 0 2.734297459819353 11.064747491102732 6.35120036027409
707 707 1 0 1.8230157751361151 5.762449703240355 12.32239490798715
708 708 1 0 0.6439594634547505 10.406427194297274 2.69413585252207
709 709 1 0 13.540183837471254 5.366764699409184 1.0056857650129285
710 710 1 0 1.4565853405344358 11.868986199445718 5.910089639813739
711 711 1 0 5.582945350251322 4.925443759363415 10.172506882738615
712 712 1 0 13.989973875967813 1.344401572997078 12.166005756581905
713 713 1 0 11.64578325500202 12.170108690619719 1.6000550890315453
714 714 1 0 3.912949851540657 1.1193657646066808 5.908032056100419
715 715 1 0 10.823678646017681 4.294666750613553 7.9217560257345285
716 716 1 0 0.4160506510386795 9.185534220969759 7.9262222960556405
717 717 1 0 5.855178672373899 11.03157716997883 10.837305508371587
718 718 1 0 11.887630358908176 13.831864963279063 4.608635086646598
719 719 1 0 3.498581579628068 0.3868315767720484 12.152629326603169
720 720 1 0 1.7997707289606935 4.553946788723712 8.651900478268017
721 721 1 0 2.5797194991938857 10.469374211151623 10.434470715989825
722 722 1 0 9.741428964961319 3.289455835029529 9.235522921224932
723 723 1 0 8.007742400509436 8.578732208189857 2.2605372758124256
724 724 1 0 11.679308052783414 0.06672463927130455 8.595007022376148
725 725 1 0 12.872011508254676 8.704322792733024 12.8805825068732
726 726 1 0 6.258839369923076 5.847957666978729 3.3398397069256363
727 727 1 0 0.44303662119396847 4.975212231434503 12.12355560891302
728 728 1 0 5.649165056386084 6.788307799168591 12.799072389633835
729 729 1 0 11.097185952971493 11.370297586342014 7.175679113646875
730 730 1 0 9.377010766725862 2.4515622485487376 2.5037016212994567
731 731 1 0 9.420384594723915 3.183472320396546 12.549785999541308
732 732 1 0 11.99546246008796 11.468616278779733 7.529484270327195
733 733 1 0 11.601457406727576 11.158987201895922 1.5541939294039586
734 734 1 0 0.7096095871031536 6.092404235936523 6.496172301831966
735 735 1 0 11.425806837619833 4.55057480136915 0.10048802351841436
736 736 1 0 4.527267593582886 12.760840985886457 6.778118272310584
737 737 1 0 12.738275962756413 13.703748533373233 0.42068130724027675
738 738 1 0 10.66377122700328 6.92231916717536 4.267251895213839
739 739 1 0 1.4394356874620675 13.456247952007613 1.6786662015321152
740 740 1 0 8.951300566456139 12.096011900862756 11.567648067488848
741 741 1 0 4.910133028166204 7.94537709262702 11.791303921982701
742 742 1 0 8.917724269806465 5.400446906024537 9.928986312868487
743 743 1 0 4.88151797969372 8.739882997212845 4.2032252386286775
744 744 1 0 6.447597281021597 5.731164345082409 12.178905097687105
745 745 1 0 12.389820536566821 8.901450192677947 10.59487255059381
746 746 1 0 12.025374084374366 7.267504336531757 9.922439491933662
747 747 1 0 4.375260415692817 10.881213852005462 7.899459741961476
748 748 1 0 8.0520965476872 2.123023625964767 6.65956479223982
749 749 1 0 13.557171125419137 13.448321549710133 11.201427843822648
750 750 1 0 4.519882923893309 11.684926397579815 9.284798476354833
751 751 1 0 5.02119336421846 7.437982833085694 8.234782945404747
752 752 1 0 8.011743216054544 4.181429085569437 10.71344253484961
753 753 1 0 6.52976166259912 9.781816766972824 1.3073758518384544
754 754 1 0 10.01231951389317 9.638828631094793 7.39223356425936
755 755 1 0 9.2277320754057 4.676284429581626 7.787761207975263
756 756 1 0 9.833740734266293 9.63983902442133 13.06631607174145
757 757 1 0 6.388077176434826 4.246050933058728 11.964962578020609
758 758 1 0 6.408223829291509 10.163161208004528 1.061701305727217
759 759 1 0 9.65128658189941 0.6127457637231342 10.230004569363697
760 760 1 0 2.3367769117871906 2.22227245416456 1.1386054981361635
761 761 1 0 6.985712111518419 5.8902753409236555 7.451844236421393
762 762 1 0 11.708507642830481 7.281470482801787 10.426257987528619
763 763 1 0 0.34147020497105884 11.815627457338133 6.425296838189676
764 764 1 0 12.731228638634983 7.527487084857027 2.236067269688916
765 765 1 0 2.559048406824248 8.886963034026747 4.902935785006358
766 766 1 0 9.306981206376966 1.4531573265268822 2.139446540904895
767 767 1 0 11.260175877986672 5.726749454093431 0.5813914829080317
768 768 1 0 5.4941823699693515 3.767188927904244 2.627186501652365
769 769 1 0 12.766797763262549 4.325298727880459 4.347450663544855
770 770 1 0 1.7027838743037216 11.131672746678616 1.163684747088149
771 771 1 0 9.14086851423899 6.307250371323401 2.1268232800310747
772 772 1 0 8.943041438615994 10.972362232360629 10.13312322412797
773 773 1 0 5.921508100992344 9.075333345356805 1.9757116668684318
774 774 1 0 9.246732581700307 10.165475812499881 11.630265834794836
775 775 1 0 9.424904955318736 12.30044683990268 8.802987693420159
776 776 1 0 1.9694898030652384 3.0945305225956985 1.9300371529854918
777 777 1 0 7.801257871004004 11.087624769964368 0.15268406253585068
778 778 1 0 4.104399474375209 5.921837839322764 12.65314440691407
779 779 1 0 10.592267450221938 11.25671511491338 8.3348744571251
780 780 1 0 7.4934776089106 5.827647239606196 7.4347944921057625
781 781 1 0 4.565708468664292 9.552911240993847 12.61813881555013
782 782 1 0 0.39707821163079804 13.73804022600954 11.736041315578769
783 783 1 0 8.516912992560812 10.610191671676622 13.907610320786553
784 784 1 0 10.238136485007583 7.667934416541589 1.889034321947602
785 785 1 0 2.2342195206806035 13.93269782893609 0.3291226463265377
786 786 1 0 11.09840545567811 0.9147659767664104 3.528996784642007
787 787 1 0 0.167200948351356 8.372969247527843 8.443232472549006
788 788 1 0 4.1430859884131435 8.998922085815753 0.46282330658723253
789 789 1 0 4.212760172518107 0.4563636834155231 1.619762132584743
790 790 1 0 0.97957787591799 0.3203687738275523 9.149380759215004
791 791 1 0 2.7766889264625494 9.268047398029173 9.997033059745664
792 792 1 0 5.446287838362405 0.4487739916869916 12.39888518821426
793 793 1 0 10.257982683972884 1.1706472661457494 9.656861501079106
794 794 1 0 5.827646940851239 5.327913459922315 6.040492357633172
795 795 1 0 8.900846375517427 4.811627625489981 13.86258479414549
796 796 1 0 2.415943179329424 7.008196865911176 3.0938946400081773
797 797 1 0 7.504926061206749 13.242479699402324 7.277704238135736
798 798 1 0 9.210201310409692 0.8234745784135847 0.1355982998298474
799 799 1 0 5.266969680671412 4.744351803127503 0.6253876789027513
800 800 1 0 11.241030941795284 2.6398830776660422 4.705193702551304
801 801 1 0 11.633784520789966 9.062396829796318 5.09016878704886
802 802 1 0 6.7349148022778635 5.339694546058487 1.5030091163666566
803 803 1 0 2.8189100902464315 9.474090457436125 2.538547307803384
804 804 1 0 3.4601682447415336 6.680214503976955 3.388531341287055
805 805 1 0 9.67272900027715 3.998439314982803 12.875752778771787
806 806 1 0 6.425701981788857 4.438398956749584 4.441555985727266
807 807 1 0 2.7882486150709953 1.8412289353976379 1.9093046983566342
808 808 1 0 9.18310392147217 12.665895699702572 8.928727909626764
809 809 1 0 12.54129964878937 1.5432963713450676 1.6371580103062717
810 810 1 0 0.8926038153571556 5.7780089013872376 8.600912973071301
811 811 1 0 1.3450725888360802 12.85456782407153 4.72153302441322
812 812 1 0 1.1348065612897917 13.533416993703984 7.863681269006165
813 813 1 0 7.90850053943785 13.435775592539319 1.932540089226748
814 814 1 0 1.5100170818637033 13.733055497062958 12.350187353323282
815 815 1 0 2.3454307737035633 10.362660206458914 0.16643706496535093
816 816 1 0 2.2437736041433958 1.180895555982935 5.416679349990913
817 817 1 0 4.201495749406038 10.567142976727691 7.403508746986421
818 818 1 0 11.954784361183737 12.257478257739601 9.83280690855114
819 819 1 0 8.569329435695204 0.3280183068386365 4.690185305038996
820 820 1 0 9.240630813372988 11.75449930809621 9.716607703052855
821 821 1 0 3.3549888121304403 10.946964768499154 13.164614990427916
822 822 1 0 8.122583532535408 9.480825504221963 3.166670360804631
823 823 1 0 3.0823595948443208 10.657501365947196 3.785419382942849
824 824 1 0 7.766431338723373 9.409509928078771 2.9677756630717895
825 825 1 0 3.25887465434572 9.638971139887603 11.231414879177526
826 826 1 0 10.095301845388684 13.025146285463633 4.501818446754471
827 827 1 0 8.870358970098888 1.4003437073957539 5.5124770125028935
828 828 1 0 12.66599814501059 1.8609884062496687 4.78839928756213
829 829 1 0 0.8603416640842044 7.218334406249598 9.034549521535725
830 830 1 0 9.597127411928897 2.6517936228842762 8.743511185900404
831 831 1 0 7.039108678423967 2.475785523866558 12.69236471046769
832 832 1 0 3.7936122743592664 6.519362806623909 2.094619100540744
833 833 1 0 10.050582785945066 13.521512365863925 0.4216074367089813
834 834 1 0 13.022028381506772 1.9244347326494733 5.8189561172635615
835 835 1 0 7.397656000001611 8.837213522768286 13.64256610853294
836 836 1 0 0.2309128224794131 8.486246010366017 3.7975174229728768
837 837 1 0 10.227271712143622 5.348778840933532 0.10867406599419671
838 838 1 0 4.794185946487805 5.477800316448318 10.042345267487063
839 839 1 0 10.261966468499924 1.3028092246801684 6.190010716880507
840 840 1 0 7.241835316624357 3.489960267139763 3.019022421101273
841 841 1 0 1.5923078303322145 3.0800292965982177 10.21889696206458
842 842 1 0 9.426633582884351 13.401962128381843 11.958908099830168
843 843 1 0 10.781370125507605 14.054505187324052 11.888785362640151
844 844 1 0 13.824499567979855 0.8002229021562176 1.9301782835766466
845 845 1 0 1.5720593991718261 1.2899636289649148 7.811747481526954
846 846 1 0 12.217972296642522 7.552228708469257 12.124831332180147
847 847 1 0 9.153910910638153 6.867946525402317 10.438315242639367
848 848 1 0 12.142460919861895 12.749207500793192 3.7478999710493595
849 849 1 0 8.146502942514195 8.49659011263407 4.686706588192988
850 850 1 0 1.0221890021663407 13.186891447320624 3.9893057369839497
851 851 1 0 4.715012122903885 0.984155850625955 0.5285925547488929
852 852 1 0 0.2159160701649783 13.093144666398787 6.478607820506772
853 853 1 0 1.8008431237879914 5.5378061078149 6.07528951760218
854 854 1 0 1.1417455297113202 8.059192934202311 3.2126327594602
855 855 1 0 2.668213925904424 6.415028367736692 5.046421061688453
856 856 1 0 9.354574582148773 3.009476667703086 4.226827025987983
857 857 1 0 7.195338055678667 13.517241721374278 8.802670199853225
858 858 1 0 6.391189132398175 5.453359161218933 0.9352435185414982
859 859 1 0 7.682656628124508 3.593777121710024 9.199958395113187
860 860 1 0 5.935469550769537 0.36514090030389057 7.240683247428069
861 861 1 0 11.771006960322888 13.591006331081806 10.803506806852331
862 862 1 0 9.161601653213621 13.822158453629843 13.766491909388911
863 863 1 0 6.605628355735952 3.2164782695665357 0.5329212541401905
864 864 1 0 7.504895064034077 10.588757550210042 9.88436922633661
865 865 1 0 0.9775263719248679 9.025509608876456 11.856970299305138
866 866 1 0 2.4723293086039115 4.126949475698483 2.160806515923748
867 867 1 0 10.838861102675086 9.515946480622219 7.723054609386713
868 868 1 0 3.3822197128249067 5.433001888366753 13.083135170620634
869 869 1 0 4.413946400721891 12.569401700567786 7.555656717663835
870 870 1 0 2.624329987149428 11.32974613442463 2.667180306881822
871 871 1 0 5.759584479760106 1.1066212178101564 3.139263059985204
872 872 1 0 9.692907311018777 8.458601225362225 0.8658956190430495
873 873 1 0 8.701659537412933 4.386786352323429 10.508103822925124
874 874 1 0 10.709044926467667 12.971748343837227 3.8066576581570266
875 875 1 0 13.293277216291514 1.3691904424338595 12.615084258800142
876 876 1 0 2.4372484352468082 9.690293324563875 9.32183736702595
877 877 1 0 11.683768953315552 9.450556308254782 13.636666942766636
878 878 1 0 13.603882640512792 5.122055216953337 1.573048695883934
879 879 1 0 9.309198327183351 0.4150523739435301 8.339936414028307
880 880 1 0 7.34724864998358 12.284445074313217 3.8202730164771586
881 881 1 0 12.352944048788322 7.37382863234571 6.09902852664274
882 882 1 0 4.675182980265386 0.20542810662168678 1.1438416189514369
883 883 1 0 10.460627163527404 5.145440279497311 11.778754461430562
884 884 1 0 7.101528401499625 11.527033619282049 1.506334529558411
885 885 1 0 1.2036228014082955 7.304364846259717 9.097527845645368
886 886 1 0 4.561537755031302 12.468316692466448 1.918298550808788
887 887 1 0 11.990941523307676 11.50636315870789 8.357900230532683
888 888 1 0 1.4589568492964922 3.7499577570218707 3.192699309953558
889 889 1 0 3.523092567647019 8.39782510653719 10.373451837129636
890 890 1 0 12.362175524781083 0.38690285635633054 3.1764498466476296
891 891 1 0 5.557152599450089 0.6025385854827057 6.705608207466886
892 892 1 0 10.513347500240847 8.568076414115867 11.004082674012801
893 893 1 0 13.798394077775711 8.474886257863066 6.786746724709121
894 894 1 0 6.65796137456439 0.49080337860601336 0.6271729835958504
895 895 1 0 1.0125817135990025 6.4082575019576895 1.7182725165916632
896 896 1 0 0.7242318826256682 0.5415732866235368 10.788146902043252
897 897 1 0 11.325295755367835 3.4108016392960017 5.139057524730318
898 898 1 0 7.612638651394905 2.673970214937862 12.963137389382712
899 899 1 0 4.546249316216259 12.791786004852733 7.653062785673563
900 900 1 0 12.804252562675495 2.9366385394527397 0.6496916101913205
901 901 1 0 7.265206950338466 1.5373192087420067 6.570242930070388
902 902 1 0 12.685140104830525 0.5955604456048469 5.849151275754334
903 903 1 0 9.654389590017317 11.976054197022238 2.035042536922275
904 904 1 0 11.81314311535958 7.585963040259439 6.544694766960627
905 905 1 0 10.698222916172192 11.40861176856544 2.2640780005652874
906 906 1 0 0.46894824540815855 9.758153829923199 5.146060812348414
907 907 1 0 6.2651343532084125 0.24144825332554185 12.834598879783806
908 908 1 0 6.819000557895773 11.78115968160288 10.264181092771013
909 909 1 0 11.556239038546577 6.299389107069111 12.81846268047404
910 910 1 0 0.6983736790163001 11.233389243527366 4.0028430773865695
911 911 1 0 13.60942372410389 7.608136277872807 7.589351911233236
912 912 1 0 10.055586015795742 8.791842861257113 0.4239242658546161
913 913 1 0 7.476638653856649 11.740869339666519 0.6950645820496459
914 914 1 0 8.03202300022932 13.98506338829123 7.920492686728672
915 915 1 0 10.29974062406931 4.903989134411559 13.60843886579472
916 916 1 0 11.22579049211977 7.011124258024088 12.44870610385348
917 917 1 0 5.271299599754458 3.257346681705632 7.634583990003131
918 918 1 0 9.787206735633331 2.593100362497167 9.800759083227955
919 919 1 0 1.8710368524634873 1.072408150820802 6.290669345457374
920 920 1 0 4.71905948845661 13.7404606573708 9.26153970497001
921 921 1 0 7.180727659153696 9.498084961861904 12.47074897895242
922 922 1 0 8.209013554672017 9.438053081955298 1.7759228760587158
923 923 1 0 2.4206770375347766 1.728480520965643 0.3766934865006145
924 924 1 0 9.281787591875576 9.962456920082824 13.576435106615572
925 925 1 0 8.654139680320434 2.0611818161387263 13.450923886347487
926 926 1 0 6.046309428801257 10.539389708679783 4.048802060427213
927 927 1 0 9.98152002778778 6.922356558857972 13.812208556164485
928 928 1 0 5.905847299610556 1.8270383691649534 8.287308190511071
929 929 1 0 3.877918862802096 5.804258275051803 3.990519390242151
930 930 1 0 0.06285854935793435 3.0988390242831945 13.704112638366178
931 931 1 0 0.2267883952401297 5.4086744692754225 6.8569128435828
932 932 1 0 11.65542863839132 10.910599035440073 11.295115330759577
933 933 1 0 3.887681798387467 0.4341964946491926 13.079356355749887
934 934 1 0 9.415950102904699 6.911441701936935 7.151657061631384
935 935 1 0 10.687434276168556 10.600969965633958 4.508225602205009
936 936 1 0 8.716055434938319 0.4558393156585782 2.2160722071913805
937 937 1 0 14.057740252779983 0.07798254482513457 12.821979086425877
938 938 1 0 7.338244501176846 9.631309430362961 4.871097248763769
939 939 1 0 8.118179881824448 8.10347982882598 3.121729160075362
940 940 1 0 8.66100289435641 9.024761988916254 10.409471541729975
941 941 1 0 9.234993593752534 10.267262453488758 5.342650603443244
942 942 1 0 12.818029878244038 7.670775638195757 1.0597124542842002
943 943 1 0 1.2440488167343708 4.248822502289623 8.756521087115242
944 944 1 0 12.420772506753114 7.310349369905756 8.62989145311222
945 945 1 0 9.548396755769671 0.3546599842192245 6.647950405755553
946 946 1 0 13.832524302828558 7.503055423920189 5.930681306175948
947 947 1 0 11.875114085408443 10.461478579057573 12.925733887442389
948 948 1 0 5.318757859413561 10.1326599564641 3.4837503041876934
949 949 1 0 2.7139002459965247 5.041870000665633 4.891188776797817
950 950 1 0 11.188053792190301 7.0149872247249085 2.6480035392586174
951 951 1 0 9.417642619409836 0.5927484820611342 1.5138341968310092
952 952 1 0 7.013891732902539 5.3754593004802755 12.989636781621389
953 953 1 0 13.39444906111079 8.970108639292908 10.799383639804743
954 954 1 0 11.581569064366363 8.735085465246028 1.613464856150122
955 955 1 0 14.002304001052602 11.42446916989176 10.107599492366285
956 956 1 0 13.978097000510369 3.26343196958688 7.302958066018807
957 957 1 0 0.029980610782919328 6.4674590846026545 3.0191272822910062
958 958 1 0 6.4476203804187024 4.982544087344017 8.295599439882123
959 959 1 0 8.858323763931324 13.517294893988804 2.9330967904305196
960 960 1 0 3.4040278787201874 3.541424093059018 13.610746867046903
961 961 1 0 6.300390046883774 6.120522798204391 9.443903192568524
962 962 1 0 13.690838322660907 0.10374673739914671 11.398420794118264
963 963 1 0 0.9012310024489694 5.712727424956069 7.756879303857197
964 964 1 0 12.567005912695034 7.548800427642346 13.27861609864434
965 965 1 0 6.394904960503667 2.3827274723812555 1.00125246896582
966 966 1 0 5.629454573097918 8.188022546919607 3.89914318195459
967 967 1 0 8.611388932171876 7.777972628317287 6.088041065222367
968 968 1 0 11.147242140781191 1.7910933876737336 3.454353178506798
969 969 1 0 9.36395813220973 11.084423995809505 8.211898075507134
970 970 1 0 2.760484932114943 0.05695361589238593 8.037547364212777
971 971 1 0 1.514800047551944 9.419358580228048 4.635861111962557
972 972 1 0 8.624266616246983 8.310802752291844 7.190447492800109
973 973 1 0 6.065783430624441 10.705534664200195 7.241227950316229
974 974 1 0 0.24276238364977756 11.421299481797467 9.908935508730496
975 975 1 0 7.401036327335181 9.078721996026793 3.1088073126017752
976 976 1 0 2.1553813249058957 0.6275173755388932 7.4676868946050226
977 977 1 0 12.433472539842244 4.94044450735803 9.967652148575244
978 978 1 0 5.598453619329057 9.706920725854184 11.729480571029823
979 979 1 0 5.568599784912615 2.307605939213576 3.685187998686989
980 980 1 0 2.2456796897698963 1.134246700823027 2.1709447064421625
981 981 1 0 1.1765254829500438 2.6109757284920856 13.05359796700286
982 982 1 0 12.257825692782447 1.1503558149394044 3.068893804042023
983 983 1 0 7.814429051571893 0.4177043711331543 2.0377182976508257
984 984 1 0 12.933654113949585 5.269250078643793 1.3484690962899184
985 985 1 0 7.730381255539323 7.962054843211588 1.1205915802427677
986 986 1 0 8.557095038059785 5.637550939413079 1.593500330122056
987 987 1 0 12.189816670710774 2.2478282147897692 9.85129198311335
988 988 1 0 12.095854246788209 12.388208527874298 10.742022230350463
989 989 1 0 1.5915557272954668 0.13118570298556895 3.797083550634453
990 990 1 0 5.986584644449776 4.402087342649284 7.129839393342401
991 991 1 0 13.60148494707265 9.571204893761646 0.6135289148376162
992 992 1 0 12.383358485705244 6.568183418204033 8.863016778775066
993 993 1 0 6.796821114158522 1.7017454265116534 5.018654527290688
994 994 1 0 2.1248104155247076 6.784307891923489 13.980442281736925
995 995 1 0 12.405496228107443 11.861223748960697 6.71558296647886
996 996 1 0 6.106901388624953 8.672036870669833 11.48176022922242
997 997 1 0 1.9197186482620272 2.1286957630250374 12.623537116948746
998 998 1 0 4.986180662745073 4.853718277697096 9.243317710192793
999 999 1 0 8.885988040616354 7.600215266446651 5.463661853823874
1000 1000 1 0 12.52984910808629 2.1716727408156027 9.668552769398334
1001 1001 1 0 6.553102868507416 1.7559292074552741 1.9993254952605821
1002 1002 1 0 12.155961169075054 10.40553508118944 2.385952462261554
1003 1003 1 0 12.706551008619412 0.3641404873420866 8.27510469773228
1004 1004 1 0 8.26097107203231 8.377390356423431 8.865261988686688
1005 1005 1 0 9.724494996363417 0.06843127147480707 9.096766771242281
1006 1006 1 0 10.610280156052431 2.752012621326469 11.019226625659119
1007 1007 1 0 13.541380782624893 8.90581943728703 3.1022973529775912
1008 1008 1 0 2.9401382491385277 5.2913654266405015 0.016629152722287148
1009 1009 1 0 6.13386232193096 11.839720978360784 5.666849259653102
1010 1010 1 0 7.574354440236032 6.743062958874721 13.792474019843628
1011 1011 1 0 9.096000746167368 13.286632120928815 12.818484514578516
1012 1012 1 0 11.406102524710557 3.8032858612176157 10.10675210064205
1013 1013 1 0 7.20568755160401 6.436749009827344 8.902520972379916
1014 1014 1 0 11.508473595573486 6.191459401611952 9.561385348532964
1015 1015 1 0 11.661769622166332 3.4072014699860373 10.77114371753575
1016 1016 1 0 10.489351807918979 12.594576077015958 4.280109108113748
1017 1017 1 0 10.93208013784568 3.2347914944603566 10.544663792569713
1018 1018 1 0 0.6276168658516794 12.672199035828928 12.031502096485829
1019 1019 1 0 10.785484342027656 0.632341519422777 13.853154294728615
1020 1020 1 0 0.34830283614750834 1.4067445249676787 10.76719883798582
1021 1021 1 0 0.07882791986532849 6.390175789926208 2.6508201506551567
1022 1022 1 0 3.073389449329479 8.531958596225541 4.45921023670601
1023 1023 1 0 2.8524273951316346 5.770723444812853 13.576508545689121
1024 1024 1 0 5.479894341323319 9.261604154721415 10.12914571972815
1025 1025 1 0 1.5668243175403738 12.245928423696494 0.7511224229752663
1026 1026 1 0 7.754184699584899 5.693335010824632 3.9465319008232043
1027 1027 1 0 8.374365218341092 3.8716198835195152 1.2574578886123267
1028 1028 1 0 2.2352411054900894 2.0134609651341413 5.029587018937989
1029 1029 1 0 10.948294673308975 13.17734272994365 6.469735071617086
1030 1030 1 0 1.634805090274522 9.776011181927098 7.272217177508895
1031 1031 1 0 4.255579102392452 10.890145606665222 9.748902628562906
1032 1032 1 0 2.988908997233862 2.90468293132013 1.9355589969333231
1033 1033 1 0 8.707192332954758 13.654853778432285 9.177759658854635
1034 1034 1 0 6.991778575485811 5.0689900386038875 6.422566086883309
1035 1035 1 0 10.627453404046882 3.8428091423091733 2.849283646958898
1036 1036 1 0 12.583106568220213 10.482764236158669 6.907437690351306
1037 1037 1 0 2.8289442838903427 4.7473944401493435 2.8138925131898773
1038 1038 1 0 9.321776486010723 5.204840773909508 4.339019663282207
1039 1039 1 0 8.45874514766291 6.799421815257941 8.601310061635981
1040 1040 1 0 11.879870804498434 11.129456486073853 13.969691139992333
1041 1041 1 0 7.407276137338827 7.450985822431314 9.046317893017015
1042 1042 1 0 4.960525532726156 12.002310722741962 2.7361215979057136
1043 1043 1 0 1.8098838386027323 13.746655761269468 5.262054803865267
1044 1044 1 0 10.017751446348813 7.293826644744692 0.861085849945487
1045 1045 1 0 0.45089082606898384 0.12020444126963747 8.551605827366144
1046 1046 1 0 12.96832247100731 13.576678787016974 4.00432363347674
1047 1047 1 0 12.017635558129154 13.133968033016176 2.595442898757011
1048 1048 1 0 13.813900136343731 8.598666949102864 8.343713413703554
1049 1049 1 0 10.546834160248492 3.20775705653604 10.698858297831686
1050 1050 1 0 11.93307340296834 7.105262574652514 3.9843826582242965
1051 1051 1 0 9.912310989522457 2.5263022570994673 6.962441621357531
1052 1052 1 0 2.6334289764491845 7.0455382264989606 0.8700376177834271
1053 1053 1 0 1.678404680804182 7.233798191248057 12.466448452736298
1054 1054 1 0 6.769955190865555 7.333594657229803 10.586212891085498
1055 1055 1 0 11.990244336110596 13.53094233802729 12.132255585367052
1056 1056 1 0 4.294815207914248 11.428379562382213 10.832588088282092
1057 1057 1 0 8.245965164085039 6.095854863294247 5.590651609598853
1058 1058 1 0 10.35434898007453 1.0750260610866347 7.518750356024553
1059 1059 1 0 0.7791939866512309 10.425254178799486 13.68248523046765
1060 1060 1 0 9.849691538469497 6.674911190372932 12.047470028749997
1061 1061 1 0 8.945073943099235 10.85019311385996 5.2541609785739745
1062 1062 1 0 5.444282500324599 4.494342116468862 12.961315303027275
1063 1063 1 0 5.461536943358992 2.824189408625598 10.121684403231274
1064 1064 1 0 4.411581923616401 9.509147660518776 7.268340320284277
1065 1065 1 0 12.24746012842517 11.076961793825124 2.3847955325769328
1066 1066 1 0 5.466336255975258 8.637516300287578 2.153220877767993
1067 1067 1 0 12.977363515898924 13.872390892592863 3.9842078012949247
1068 1068 1 0 2.0897454824705557 5.075518551977868 3.5254204806712006
1069 1069 1 0 11.422182985239289 4.278302391297762 9.000643649682694
1070 1070 1 0 1.9496992790192516 8.460994283538565 0.7579029036352961
1071 1071 1 0 11.202896557715883 12.923686559073715 8.11028940005117
1072 1072 1 0 2.1914813598072738 13.65776166326301 0.8912459395313059
1073 1073 1 0 11.710913106995633 8.410887386947248 4.201939700134157
1074 1074 1 0 5.025550203794986 1.9913875443002775 5.438809136374488
1075 1075 1 0 8.367049304748523 11.583153105021802 7.737041147472026
1076 1076 1 0 5.762731583007919 4.869143856726443 2.9884918374414626
1077 1077 1 0 2.9156430408243823 5.619039816076741 6.361897454767793
1078 1078 1 0 2.8418273680612085 8.847884079219316 1.3217615590441083
1079 1079 1 0 2.27267260551392 2.9060074879091853 2.5948681470561885
1080 1080 1 0 3.008641954358405 7.753441460287263 5.605493097388124
1081 1081 1 0 8.51779849584934 5.508989876426432 5.742061025375922
1082 1082 1 0 10.470016961018148 11.758365445978814 10.811487839879586
1083 1083 1 0 3.6231566032731632 12.477508538454318 2.647552683171634
1084 1084 1 0 13.299758403304706 0.8523128418531433 10.568587684065886
1085 1085 1 0 4.5854694832347285 8.49623143821884 0.6351575698731476
1086 1086 1 0 1.7078682605611932 5.497997999003406 12.769011434588121
1087 1087 1 0 9.195346509931618 11.235025731424594 0.3994457100330886
1088 1088 1 0 8.231542250182859 13.695992717867867 9.319844269736967
1089 1089 1 0 9.316311200638438 6.860971736905863 13.54916000921287
1090 1090 1 0 8.625764502459463 12.643113342937601 11.113808030598861
1091 1091 1 0 12.470130475611782 8.659162658426583 4.3749247797909
1092 1092 1 0 11.707219000817036 5.0410376755412285 9.292132555742144
1093 1093 1 0 9.103161168252893 8.923117682713674 3.394337058284148
1094 1094 1 0 4.987692049757637 2.705234119513364 10.671916965661765
1095 1095 1 0 1.8717709834945775 12.381980201706774 11.796862728289025
1096 1096 1 0 11.975328810739535 10.347880687380941 11.703321975798739
1097 1097 1 0 13.657460090531455 4.331449189179776 9.73891543760461
1098 1098 1 0 12.287724601687888 10.521985696306666 9.650241576857788
1099 1099 1 0 10.064479840967516 4.636647547062299 5.351502650641153
1100 1100 1 0 2.44430172796178 3.599783957976524 12.314121263215949
1101 1101 1 0 2.195453016042623 9.918632519310153 3.9497851769336854
1102 1102 1 0 7.890679199934465 2.1831445559222837 3.9535320747480536
1103 1103 1 0 0.9759450393632355 11.020699804007444 1.670364751915769
1104 1104 1 0 12.665804336001067 1.9077423651020802 12.296368499022078
1105 1105 1 0 13.259009112771897 3.862924752782681 12.58728406488401
1106 1106 1 0 3.103999622344986 3.4196734079506568 13.631619695499973
1107 1107 1 0 10.225089310503368 10.78869712562062 11.003472929282742
1108 1108 1 0 6.7479964876538014 0.41616400599489023 12.657181230920614
1109 1109 1 0 12.571947176623214 9.042053528471994 5.046475398055619
1110 1110 1 0 9.879405044083406 5.908563877111869 2.8286725183249106
1111 1111 1 0 7.9577898140834 11.58150889605201 13.081023689370474
1112 1112 1 0 0.3839053401645674 3.8648162374135837 1.4837470408111622
1113 1113 1 0 12.970630348088134 4.704654352121589 3.857337677127232
1114 1114 1 0 11.883109634903532 11.641423744698173 0.2929615793274123
1115 1115 1 0 5.507750102244527 2.3404587294568024 13.5050967865963
1116 1116 1 0 5.779483271130626 5.0391918538126745 1.6149557655214921
1117 1117 1 0 2.5323309133332286 7.678029271712061 6.740216846258692
1118 1118 1 0 9.141766766951553 9.373750137575403 3.4317649539907364
1119 1119 1 0 8.037130088024801 1.941926418689802 6.396026313188636
1120 1120 1 0 7.1893615364242525 1.8189959124088972 7.939422339294457
1121 1121 1 0 13.763874821891841 12.574401619503412 12.850709439920456
1122 1122 1 0 1.2455693831039811 0.3883387296446025 7.4809635446187865
1123 1123 1 0 4.566527366674491 10.073643422992811 4.2720089559661965
1124 1124 1 0 12.991902227612814 13.195928949113526 0.1263776936188392
1125 1125 1 0 2.471243115023879 1.0351110886412012 9.381060822074327
1126 1126 1 0 0.11148820450983417 7.587855159123076 8.794710275685874
1127 1127 1 0 10.963876298393242 3.4138122361713914 10.63524493712425
1128 1128 1 0 0.4196966377273411 6.773386110360304 2.6569749808202876
1129 1129 1 0 8.56396184951578 1.3903642950501183 11.211691425328816
1130 1130 1 0 3.689501722634723 6.508316487891493 13.581901910175176
1131 1131 1 0 11.57242314834655 1.0784551249074144 3.9616705404079484
1132 1132 1 0 6.058586159816119 5.635966436352599 10.366373157325064
1133 1133 1 0 2.2876921114025643 13.486697164330357 2.6906888868655634
1134 1134 1 0 7.94621996753574 5.088024258722815 10.244581379669146
1135 1135 1 0 3.54512219114212 3.267536852568432 11.754526086331355
1136 1136 1 0 4.51689364818458 1.5114067438888314 0.28827972287367726
1137 1137 1 0 1.40530312712119 1.050648989687356 0.34033935587638037
1138 1138 1 0 6.608366006339901 7.129361307380541 7.839804018047399
1139 1139 1 0 2.349415077141232 8.189718142035497 11.750606473043675
1140 1140 1 0 13.221591606255288 11.893711818766807 13.191339034549129
1141 1141 1 0 2.8928903605489604 12.677724647930981 4.4307526347110295
1142 1142 1 0 7.781183615992533 14.00481223531688 11.418648283308343
1143 1143 1 0 9.626167177231428 12.408780440998285 6.518562535040946
1144 1144 1 0 1.7832825926340945 7.051821471759886 11.179499089264947
1145 1145 1 0 0.03007813748790592 1.555626969240726 4.281536546618309
1146 1146 1 0 4.985566852350153 5.022204604956471 6.593382552611345
1147 1147 1 0 0.1406055740853891 10.955717081857683 13.143569559040435
1148 1148 1 0 10.911954301283787 2.4582004424078168 2.6487715242282226
1149 1149 1 0 3.0614222039603853 13.099516563090507 2.7307142391791355
1150 1150 1 0 2.895721360111488 5.048137622426386 5.1665769448653815
1151 1151 1 0 8.571384341551987 9.9398617014068 8.707028924773288
1152 1152 1 0 2.684781441836809 3.280374791036833 4.588019481480564
1153 1153 1 0 9.12153585162468 2.3451247205193972 5.351279118555929
1154 1154 1 0 12.542787681178478 1.3070337335502311 7.622395003149546
1155 1155 1 0 1.0367528717945234 3.324511521676073 4.47564751422761
1156 1156 1 0 10.652040708207702 0.31451915554722565 14.001744039833259
1157 1157 1 0 2.987673611843867 12.511883839299447 0.028313916147660705
1158 1158 1 0 1.4286811976742009 2.1816771426112944 8.98346423537942
1159 1159 1 0 11.91000594420866 8.765331960216335 0.3235674223981687
1160 1160 1 0 2.400698857972681 10.857572431917077 5.5241851785489136
1161 1161 1 0 8.244383037235078 10.349643942167784 5.216750541762142
1162 1162 1 0 2.8153269042356643 2.516778528193154 8.235484196965064
1163 1163 1 0 8.542699284651913 13.233010536327871 2.0946241003113304
1164 1164 1 0 2.672549291994882 13.90157518560558 10.640900210697069
1165 1165 1 0 9.926077481855733 1.2865563180983317 5.787023241729553
1166 1166 1 0 3.940220419474999 7.434695471732055 5.205389264224072
1167 1167 1 0 9.88840109743034 12.536035840640487 1.3914046025413167
1168 1168 1 0 5.596691756412923 2.9427115034037006 6.899085534892091
1169 1169 1 0 3.120395530905564 4.9856919419938315 4.028350938958417
1170 1170 1 0 9.201769625587199 0.8684245325382025 11.680230377955386
1171 1171 1 0 0.3096538367231052 9.498226915313182 2.2943875728646037
1172 1172 1 0 0.3115875545953095 4.268066819449824 6.725717107210827
1173 1173 1 0 5.9357237465424415 1.9802067105723715 5.945736411210092
1174 1174 1 0 11.665061470074571 0.1414073838811378 3.8312788417420904
1175 1175 1 0 3.6282826350767072 12.573420154361914 12.472493649358336
1176 1176 1 0 11.229389791333316 10.446375053620235 3.0654689536144373
1177 1177 1 0 7.523859261739657 2.7954024745686636 11.915484939501827
1178 1178 1 0 12.552371033251914 3.666418577978459 8.057847001685056
1179 1179 1 0 3.6585078467200773 13.124503082153444 13.249682777483129
1180 1180 1 0 3.520746487210716 8.663435010212606 6.353135491858905
1181 1181 1 0 8.616310886530494 5.812440622207367 7.1767866380246135
1182 1182 1 0 2.0155563601218196 7.68105569428122 10.040718861970666
1183 1183 1 0 13.331444693941773 3.5808629737735385 10.078410095410243
1184 1184 1 0 7.6578585717504195 3.129626100807738 13.130616937937848
1185 1185 1 0 11.606023243486755 4.3366516779492965 7.67046462044327
1186 1186 1 0 11.012229562353252 3.534229276049409 5.686563185997966
1187 1187 1 0 13.604239014904143 6.92186474534414 13.795221631978865
1188 1188 1 0 10.242412015881582 1.829610603621619 4.338109691614981
1189 1189 1 0 10.537082606535199 11.629764640319594 2.5161208875038987
1190 1190 1 0 3.565974286544612 9.841179394216711 10.405831927585409
1191 1191 1 0 7.778846046133675 10.001333207436076 13.00751662209443
1192 1192 1 0 3.7653376097871414 1.9480270518860887 4.436602981644372
1193 1193 1 0 1.5678624620459853 5.165874122520056 9.296311685717502
1194 1194 1 0 9.16739699820645 3.2752534196968295 0.6448789768680675
1195 1195 1 0 4.153307271739711 11.126474923091232 13.750131040874715
1196 1196 1 0 12.707478902939211 6.65149453534873 12.490281649358035
1197 1197 1 0 12.240107069899716 13.110853051356226 12.612888754135819
1198 1198 1 0 13.057412963029922 1.3739096536740565 9.399316106880441
1199 1199 1 0 8.575496698250076 2.4312339190873637 13.47940669764574
1200 1200 1 0 10.758073748124353 3.978300061382379 12.525807940956819
1201 1201 1 0 1.3030942911899581 3.9061934817392765 3.367461673286816
1202 1202 1 0 13.477666394458394 5.136484154982636 12.203725316110779
1203 1203 1 0 1.8113105057809449 6.581519633810639 11.909748424246107
1204 1204 1 0 8.328051363746587 10.23293349088869 3.115712339752797
1205 1205 1 0 0.6170943529480329 8.933247193285823 7.697854789152068
1206 1206 1 0 12.48426710461594 6.71481250976981 8.081124576671492
1207 1207 1 0 8.950228709026547 1.4564493442568553 8.250381315823805
1208 1208 1 0 5.024719067841975 8.755184323673232 0.38627475410649603
1209 1209 1 0 1.3831059831899348 10.209373839659715 7.7228229204166965
1210 1210 1 0 0.9188173818578248 0.9399221125635254 9.804283648572195
1211 1211 1 0 2.386953457134986 2.2944132470793193 0.9673741905323855
1212 1212 1 0 8.033438404930054 0.3239944600352146 4.226564437261311
1213 1213 1 0 4.253927561099764 2.6301140146244935 9.702312031141929
1214 1214 1 0 13.751587047234802 12.406027759997482 11.108924847608598
1215 1215 1 0 1.5716290257710193 1.6034704004820914 11.888824238312385
1216 1216 1 0 1.5401692034185475 1.5543152996461336 13.566977764413576
1217 1217 1 0 9.100320633591119 6.107510846760242 8.096579716175352
1218 1218 1 0 0.057054129460673356 6.840369823822984 12.88452771857751
1219 1219 1 0 13.980510355671605 6.683176844077163 8.0549528576983
1220 1220 1 0 0.5777213837892209 5.071152620877651 11.745280986861632
1221 1221 1 0 3.032962330401907 0.9373687208818468 4.480445153978547
1222 1222 1 0 6.013805022728431 2.1373818026006766 6.784187370161428
1223 1223 1 0 1.5758824524165511 8.515193358965055 8.464425395559601
1224 1224 1 0 12.394816949697445 11.50303260675388 0.18247982611331406
1225 1225 1 0 10.382577796093651 7.136648127158342 3.94602364256408
1226 1226 1 0 14.064057173239357 6.7735052331376435 3.639179137157154
1227 1227 1 0 1.92625688954804 8.210637279184443 5.249573789461944
1228 1228 1 0 0.923247109389942 2.729320256505764 5.459828237370026
1229 1229 1 0 2.9548405209270134 4.100806023011817 12.190739282659745
1230 1230 1 0 12.777960546843804 1.3382802554053024 12.673801278517892
1231 1231 1 0 10.252601208917026 0.2902867305188725 2.289189269626408
1232 1232 1 0 1.4490065386336641 1.4704397015907489 12.065844602752595
1233 1233 1 0 0.14926896176191742 11.378883281166786 4.871570380376258
1234 1234 1 0 10.603577306210697 5.864037334484236 2.309447098873768
1235 1235 1 0 2.3716497760623816 9.768754321951093 4.814095549993807
1236 1236 1 0 4.543838787720133 7.955660536797944 8.268588327758735
1237 1237 1 0 0.40548662632293614 3.6804812034341565 13.411391758503129
1238 1238 1 0 12.956630764735419 11.649531838863346 9.242443106917378
1239 1239 1 0 1.2132884397713293 7.7622638266847135 11.7640670760136
1240 1240 1 0 9.731953027646798 10.727044797367848 1.9443373941907163
1241 1241 1 0 3.596614582247278 0.264773420070202 2.2788932216266202
1242 1242 1 0 5.514306096691818 13.581839052279706 11.306556342062484
1243 1243 1 0 7.709423105286198 5.260699820684016 10.976511237946514
1244 1244 1 0 7.1605192545949725 9.009030138224883 6.24390151564815
1245 1245 1 0 0.6097492444319531 3.9532243589439156 10.597510204265044
1246 1246 1 0 5.88657344442529 9.642557881587189 9.515902471692849
1247 1247 1 0 10.525866950916072 11.715946899049424 7.861897930462877
1248 1248 1 0 0.83884876465039 10.428343998197464 9.50799416874901
1249 1249 1 0 7.948497895431963 0.8037160962718223 11.713626919396958
1250 1250 1 0 3.938739917867511 11.50556824497675 12.919711749393649
1251 1251 1 0 13.869061781774375 13.658747279578716 8.570192123323745
1252 1252 1 0 13.38424628643954 12.89492162332566 7.015652383011942
1253 1253 1 0 5.97972199682697 11.616500925973442 13.005636302706217
1254 1254 1 0 0.400629206579107 7.670763952673478 12.61926695601229
1255 1255 1 0 4.165470240698766 4.675465829563136 10.339152107741532
1256 1256 1 0 9.107021715591783 4.636920720754992 12.537955758219152
1257 1257 1 0 8.392043595743871 6.444066805180725 0.3924977203888039
1258 1258 1 0 4.5229098081274195 6.321261595541298 1.4630841039582068
1259 1259 1 0 1.8165753244057197 2.3279546728812517 13.082431946291026
1260 1260 1 0 7.926447069018007 13.988841218192084 13.119767122582571
1261 1261 1 0 11.707533473265158 2.5089264728643808 4.5869861835865535
1262 1262 1 0 11.701288055807355 10.63259377036845 3.3465169688924674
1263 1263 1 0 9.321963012724792 8.575983738204773 1.0002646909216897
1264 1264 1 0 13.69274262580947 3.8830707868383207 2.5568530167622825
1265 1265 1 0 9.450087254230361 11.80685734466231 12.401891059533643
1266 1266 1 0 2.6139959661490675 13.528028394611649 11.840336612757053
1267 1267 1 0 9.601598336880492 10.040635687095708 6.979875509587139
1268 1268 1 0 10.285937958204212 7.689765691010791 8.437724010414474
1269 1269 1 0 11.929851337462198 3.480121500425537 2.082543315558357
1270 1270 1 0 4.5689992819646745 0.31574922506906844 3.962981811703202
1271 1271 1 0 8.896385288862028 4.935080544000136 9.130268452965716
1272 1272 1 0 0.8670232095004549 3.107306452958191 9.628672290967799
1273 1273 1 0 1.4641928972661775 1.700801061614715 9.21922865324987
1274 1274 1 0 6.486966027837919 4.7283732751665415 0.36903340877938073
1275 1275 1 0 4.719423295833768 5.157735434341109 13.22131852032684
1276 1276 1 0 1.3830464911470488 11.945318469260053 11.795974968147657
1277 1277 1 0 4.968035952179797 0.42134434821428013 8.172962282912987
1278 1278 1 0 12.175990944562852 6.7652918149929295 3.8155307943208148
1279 1279 1 0 1.277003089712343 6.009629667334886 13.067558864865106
1280 1280 1 0 10.71369245025006 7.777807785812191 9.39242190965438
1281 1281 1 0 14.04600643769352 12.410777953907989 8.25284654085111
1282 1282 1 0 1.2948976936674517 9.48397440027505 8.81904693809633
1283 1283 1 0 7.0586733939687365 10.490238342371105 7.228149028317355
1284 1284 1 0 0.5186790594080418 2.214499074361403 9.325824390062582
1285 1285 1 0 8.736904262090883 1.456564543375679 8.345393713545029
1286 1286 1 0 9.685763222699066 13.308651357587413 7.038044685375369
1287 1287 1 0 3.731361925237535 7.704976565901983 4.77507843887931
1288 1288 1 0 10.563247871740966 2.0740984935136244 2.6706321084880735
1289 1289 1 0 12.744003508821253 0.027774923957316913 7.927184084908524
1290 1290 1 0 2.458522435955196 0.6866243666290204 1.8288474585192145
1291 1291 1 0 12.805091252297181 7.252783745843658 0.44413197698215806
1292 1292 1 0 2.6303244984022944 4.571981009211968 1.6452631004416456
1293 1293 1 0 7.359080033676125 0.120270043672043 0.6228356236459315
1294 1294 1 0 1.5574288297417265 5.905538646665636 2.7588618183257343
1295 1295 1 0 9.342091205227144 5.91559239272031 5.769170457724616
1296 1296 1 0 2.4854384617709147 5.42301786693303 4.255074251824961
1297 1297 1 0 0.7561916262389884 13.244648321183213 10.056625685378847
1298 1298 1 0 1.5521085641152876 11.517935893185767 9.646512322406148
1299 1299 1 0 13.262365423606257 13.16182836012839 3.5622475854846187
1300 1300 1 0 2.5220478746552244 12.264511207844356 5.071231836868001
1301 1301 1 0 14.060446553414437 4.3582923950888715 3.579614605087535
1302 1302 1 0 2.4425293264851744 5.1333797459706965 10.421005553417118
1303 1303 1 0 12.04399159459251 8.007084656947418 8.058251905198613
1304 1304 1 0 1.6153835334632718 8.59744074584463 7.596037974633625
1305 1305 1 0 0.12846902277674768 4.881262107993316 13.745977566563772
1306 1306 1 0 12.351390753200283 9.165665321043274 0.3955376482096671
1307 1307 1 0 6.956145791345859 2.8997823820749056 12.82301232753072
1308 1308 1 0 2.874398965556741 7.221587243283738 5.094521270016061
1309 1309 1 0 13.74412833243437 0.0812456102064645 5.820438040576012
1310 1310 1 0 2.0597100172894693 4.2309614937840365 12.253423264705669
1311 1311 1 0 2.1241870796286277 7.664692746807004 2.4483076556081813
1312 1312 1 0 10.295519619745853 7.854550926574997 5.519097883956815
1313 1313 1 0 3.80873949146255 4.618168497062705 13.956166679418903
1314 1314 1 0 1.3395391926069389 8.35959167148891 4.70567580842578
1315 1315 1 0 3.7621071895994436 1.0845314174283016 0.7425945753585232
1316 1316 1 0 7.421976229609366 11.910091021691127 9.97484542039386
1317 1317 1 0 13.497665564871978 6.1616608904933505 12.41984582908879
1318 1318 1 0 1.9438927626712263 6.499830380632612 11.136859591751262
1319 1319 1 0 9.7216809560609 8.169852861331057 0.2518896389436035
1320 1320 1 0 12.157171068128854 11.968533753783875 6.166974394330155
1321 1321 1 0 3.118128603180114 6.741075297334491 13.548975425560482
1322 1322 1 0 12.069487657355012 3.0149000862712203 7.873050413984427
1323 1323 1 0 9.262100055810022 9.6247253080964 0.06254968141466236
1324 1324 1 0 11.281988805286263 11.276965626537908 7.680637919857237
1325 1325 1 0 12.753549405882 9.310558703624004 6.995038668678613
1326 1326 1 0 5.568776801691856 3.024896291462776 5.1162905936686744
1327 1327 1 0 12.117129582092433 9.589439123508624 9.404792161422629
1328 1328 1 0 0.5300403541406139 2.1915549987096212 9.124930720256254
1329 1329 1 0 1.5350029056450045 0.812150131395458 9.204441501555962
1330 1330 1 0 8.664544798297776 11.45869068603749 1.1076982941421805
1331 1331 1 0 11.966971236794754 10.534315637185987 13.265756257779008
1332 1332 1 0 2.7250814107552612 13.880034722821923 11.844387527929145
1333 1333 1 0 2.568258084154994 2.337843801919883 12.478095960669203
1334 1334 1 0 11.697968213273864 10.013319153928252 10.930785406234047
1335 1335 1 0 0.11460243566768429 12.562329142519767 12.700810020000759
1336 1336 1 0 3.878571015043068 10.94708472026733 2.805452147243481
1337 1337 1 0 5.983382674207293 6.993896668187197 13.010442449605009
1338 1338 1 0 1.629823148179002 1.7135547882763273 5.342068450907217
1339 1339 1 0 1.7578941656468254 10.461461910441596 5.792713954929945
1340 1340 1 0 10.561751978511845 13.767474721927904 6.231958059354482
1341 1341 1 0 12.00565744201427 4.583737118000041 11.988630308135983
1342 1342 1 0 11.20218753813691 4.79752912792904 2.425037418112281
1343 1343 1 0 3.262249512762057 10.15283130655415 11.448724177948625
1344 1344 1 0 2.9757414911632774 1.4754655131318914 6.4410605542295
1345 1345 1 0 11.499646538601013 12.049209866531541 9.152957038392616
1346 1346 1 0 8.367689262127879 2.691297158229098 7.687963509776845
1347 1347 1 0 5.694825369645389 11.662066734870903 11.335468876133511
1348 1348 1 0 8.98834879899341 0.042704056211219366 2.2845767709683713
1349 1349 1 0 4.032487802373811 6.117313301368302 5.19442557609206
1350 1350 1 0 6.533423093389362 8.380031912322394 12.358625940243689
1351 1351 1 0 11.801769001505523 12.16384598481839 6.042404347101337
1352 1352 1 0 8.933023098348645 6.7745489257631055 1.8120830919802597
1353 1353 1 0 12.25666552742455 0.4661256290353066 0.21510755731958278
1354 1354 1 0 11.774885671291903 12.438739614592517 10.14481691127753
1355 1355 1 0 1.921085639236986 7.481011099218879 5.708351397504402
1356 1356 1 0 4.300550472865032 13.947955242066804 0.35069555058198665
1357 1357 1 0 3.2789590591566182 0.9027398174814893 9.829293612799987
1358 1358 1 0 12.75918427873096 10.465368122842094 1.22013012544338
1359 1359 1 0 0.9794062613169742 8.996098262112495 4.060005219908184
1360 1360 1 0 3.716235346882251 2.594822259933673 5.6684573168159975
1361 1361 1 0 11.150170687437463 3.6649208701122573 9.695383660164541
1362 1362 1 0 13.596054817556603 9.908574226361395 11.418856026357034
1363 1363 1 0 3.664576668086821 2.9746863864172997 4.700581800906791
1364 1364 1 0 1.9449091166885322 11.778682611930057 2.9693233667474486
1365 1365 1 0 4.84251311967382 7.46659045376371 7.677404809556042
1366 1366 1 0 10.691718649898696 11.262857691353528 0.5056749043598174
1367 1367 1 0 2.700243199521682 8.937694128205276 8.664813720880085
1368 1368 1 0 0.3348242457248248 12.796197351086985 0.1682887697403854
1369 1369 1 0 8.642958231078422 9.726578516093845 2.92906909623343
1370 1370 1 0 3.5038984707200997 10.25356266352734 13.405263698257928
1371 1371 1 0 1.994793622784702 2.777027809568674 9.112255929590523
1372 1372 1 0 9.100112662125289 5.579577523283072 5.569977801228968
1373 1373 1 0 11.313340506375846 2.643900137142085 7.915832622745173
1374 1374 1 0 7.389595307017935 12.289579872019068 3.72076009424926
1375 1375 1 0 3.945689241881486 5.514013999070868 7.117650850071474
1376 1376 1 0 12.980740976710495 1.4207471989436509 6.339300132121179
1377 1377 1 0 9.41314564062148 6.783434093210334 6.530983498609827
1378 1378 1 0 10.7592891034345 13.098954935106066 7.771387486956592
1379 1379 1 0 11.36371997785234 6.773210670230094 4.557551635063026
1380 1380 1 0 6.790411032326823 12.54107429677643 7.9211419896724555
1381 1381 1 0 1.4795537887992154 7.548887208410431 0.2122405800203499
1382 1382 1 0 0.3689563976467699 2.0526021524290607 7.496894361287423
1383 1383 1 0 0.973371009589565 5.448504830672504 10.157355526761464
1384 1384 1 0 13.559796971047858 9.382909924552843 0.5102238608306523
1385 1385 1 0 12.569873632479156 4.007265684343471 13.650624824452231
1386 1386 1 0 12.725491509180088 0.026666633931822108 12.93602611332843
1387 1387 1 0 4.506941810412504 0.06646992653899517 4.157513799482503
1388 1388 1 0 8.030982577921414 10.168861197637273 11.761973873538334
1389 1389 1 0 5.608084284494856 13.915617102246625 1.2295236277131805
1390 1390 1 0 10.038364352672463 11.094142306999801 7.3927971955097105
1391 1391 1 0 9.145044811800515 1.5094036108281181 8.347790948083139
1392 1392 1 0 12.568949703170205 10.888740784540305 0.13387203481224408
1393 1393 1 0 4.484583538584899 1.0590500097814206 6.603483907849081
1394 1394 1 0 0.26931265450343767 8.770031042038491 4.773103540728891
1395 1395 1 0 8.986025880835507 5.633278808941127 5.095651736291361
1396 1396 1 0 2.5076188519450073 7.7064739996694955 11.164885444813947
1397 1397 1 0 13.102952953917072 6.435112255391452 1.0955228204032892
1398 1398 1 0 7.958490453595969 2.2170680524431767 7.002984089436245
1399 1399 1 0 11.599291374862403 2.2007215148079826 6.477957446564809
1400 1400 1 0 0.24127389632827545 2.9932990791932816 13.389098098424753
1401 1401 1 0 7.260679453046725 3.598474868444415 11.834985813980865
1402 1402 1 0 8.204860265603568 2.606464503075786 1.71044994129301
1403 1403 1 0 3.643264809314967 11.164915380528454 4.385224950727947
1404 1404 1 0 5.013352824555502 0.4924880707390585 5.270840991683763
1405 1405 1 0 2.6299633736996806 2.9912283285603927 10.911368877303062
1406 1406 1 0 8.851000167593877 2.112397596968561 10.693270002018279
1407 1407 1 0 6.944048259520105 8.768815392790968 4.5379922958878485
1408 1408 1 0 7.563522958871525 3.7717273482301934 0.00209173415604699
1409 1409 1 0 3.234802918152388 10.335168723812993 10.842239824502203
1410 1410 1 0 4.208692535723984 3.17438449030269 1.5506620506793185
1411 1411 1 0 10.65557376089061 12.825845680292318 11.194556202694024
1412 1412 1 0 13.159726005843963 2.0972344798632627 2.863209055304427
1413 1413 1 0 9.448301097142883 2.7106519159078544 8.453396167928062
1414 1414 1 0 6.002307319559868 4.826277736608188 10.012593286087036
1415 1415 1 0 5.200273954466578 3.7694558445340314 11.90999149802295
1416 1416 1 0 8.63900635551238 8.874391715119542 7.609620050193324
1417 1417 1 0 5.989726891038114 3.0164901052929896 9.693646710303716
1418 1418 1 0 5.1371161008592905 10.764206645566833 1.558662616209951
1419 1419 1 0 11.21997524392051 8.106200990078163 13.113560411686677
1420 1420 1 0 5.70068968623777 13.617983270805354 8.209846854626424
1421 1421 1 0 13.091655435556659 0.6774597446621491 11.745398514690692
1422 1422 1 0 1.3527877751517403 6.802186883804631 9.781411161718138
1423 1423 1 0 0.8358469886545968 12.757520143670487 10.85022220316412
1424 1424 1 0 10.430159645979252 8.463465813294587 10.976847698853497
1425 1425 1 0 8.823989675619025 8.831085537291386 13.8084502037438
1426 1426 1 0 0.0910732424974121 12.832502205586394 5.899358864716141
1427 1427 1 0 9.66135435580754 5.316917057951439 10.787332750114519
1428 1428 1 0 0.9592478385621639 5.853725041954136 7.829008089520341
1429 1429 1 0 12.277186578143803 1.9046847939836251 9.01271010666455
1430 1430 1 0 6.800731713237877 0.7826164834749407 8.872527997641061
1431 1431 1 0 1.5949296343453205 8.022806914148484 11.983700030151578
1432 1432 1 0 0.4554102942215897 2.279697756625228 6.056036791762286
1433 1433 1 0 3.9017816652890627 8.045217834643223 13.203220713083056
1434 1434 1 0 1.273931379452116 1.4026938907931044 8.051623705793256
1435 1435 1 0 0.7173626198326943 2.6187085173412132 12.652126241555887
1436 1436 1 0 7.727225668717145 7.065518746519228 3.263268819003402
1437 1437 1 0 6.233323048281474 7.712606186915184 13.060772250727238
1438 1438 1 0 10.125180720273612 4.979547011109995 1.031792423462397
1439 1439 1 0 6.223076437505033 10.77255505352646 0.7610964063255959
1440 1440 1 0 2.1249256660088784 1.8006727495188402 13.82652101319206
1441 1441 1 0 3.438713361585237 12.541192450486491 2.0639399852295495
1442 1442 1 0 6.229320460241778 4.958774577438955 11.945317605870708
1443 1443 1 0 12.947609181562914 3.9691430197420776 5.299319763741839
1444 1444 1 0 0.4420302487669334 1.3883484972293407 5.325167238582176
1445 1445 1 0 1.2594991675082632 0.741412037105734 11.09782389233625
1446 1446 1 0 6.377030042280794 11.675513724861569 6.169712553690585
1447 1447 1 0 9.23413557318232 6.911099587459672 12.822102988637244
1448 1448 1 0 10.859005880098506 1.581949879428085 12.407624139063241
1449 1449 1 0 6.510080981252069 8.298889263455349 14.032470419273034
1450 1450 1 0 2.4468351071962133 8.32214765751064 10.338210071068515
1451 1451 1 0 1.1396901759365046 12.826233364769902 7.319978435377211
1452 1452 1 0 11.306143521689771 4.011116873879632 0.07010244415248452
1453 1453 1 0 12.152746812648907 7.481235544338913 11.384335745820419
1454 1454 1 0 1.6241773710267529 4.742840334561986 0.9604525642849844
1455 1455 1 0 7.437283799918377 7.830930570882672 11.86030334093154
1456 1456 1 0 1.2066369057299486 0.08824276511610556 3.728069641257794
1457 1457 1 0 13.507589278136217 6.349037465348078 6.059042749870872
1458 1458 1 0 0.8733269355597454 4.483498736566277 6.299909386603608
1459 1459 1 0 12.89873580816168 12.218511043466446 1.5552792896198318
1460 1460 1 0 9.135459540136385 7.088417648962349 4.03441434573429
1461 1461 1 0 5.101715573587929 0.30044211342234123 9.41708644656786
1462 1462 1 0 9.950255432608815 0.38240506776509003 6.6060929740323795
1463 1463 1 0 4.607149268027431 11.677936417324444 6.269949793623552
1464 1464 1 0 1.2588510594855675 5.175039202660768 10.615244282817226
1465 1465 1 0 4.0764191736285005 11.819238872700964 2.8615259480473445
1466 1466 1 0 0.7338797781651576 7.842364087785953 3.096136008087226
1467 1467 1 0 13.307940354830892 3.4399471865679727 0.706360057159517
1468 1468 1 0 1.4956238580057202 9.274283658276042 7.56660081216795
1469 1469 1 0 12.762088775947467 1.3005994638169625 11.690901395458564
1470 1470 1 0 7.871384748427866 9.438446457156102 3.2987442868906647
1471 1471 1 0 10.660325312492969 5.516026769899584 7.404751416718958
1472 1472 1 0 5.507477921027917 5.375297354892187 3.29924745668402
1473 1473 1 0 12.791603051650293 2.497912316212416 1.455338908934598
1474 1474 1 0 13.894521074182512 4.3171493421866325 5.1250439486206325
1475 1475 1 0 11.138138824388157 1.7982401778771677 9.791072667285485
1476 1476 1 0 10.343127771732838 8.708762293426936 7.417410837062267
1477 1477 1 0 5.344155516833182 4.474288527583374 9.346893168835477
1478 1478 1 0 3.7796771185586358 11.173904150754895 12.951380169299844
1479 1479 1 0 4.023828089905323 12.783715573516904 5.144289693607079
1480 1480 1 0 10.515008212830805 10.74764991665989 11.753098584918968
1481 1481 1 0 11.41438737347403 2.5257729123686357 13.992597489670676
1482 1482 1 0 11.189254799951021 3.052163779113967 0.8464562235809834
1483 1483 1 0 4.048556969380833 12.999133692325161 3.6311827448607303
1484 1484 1 0 12.00858174050479 7.1355617529441835 7.815683643201933
1485 1485 1 0 6.639746511597829 1.9426590844517266 11.77849456919438
1486 1486 1 0 10.498998618992418 8.656615716029204 12.517376210082482
1487 1487 1 0 5.833570127506307 7.103471737161943 2.0233202388174627
1488 1488 1 0 5.980897007373257 8.873546555822886 3.0004080997957434
1489 1489 1 0 7.266801068297295 4.044269536289559 13.203994964817173
1490 1490 1 0 7.91198407542227 10.202420681955758 4.8557214389186685
1491 1491 1 0 4.745980895141457 10.94355570578292 12.672521341683554
1492 1492 1 0 3.6394468908244404 6.525334323809344 3.153729950666721
1493 1493 1 0 12.88880111695302 12.649612735288338 12.833628940735075
1494 1494 1 0 10.882054027957668 7.839783608199496 7.99423955528095
1495 1495 1 0 5.930757784080403 2.007875965995516 7.875751292407941
1496 1496 1 0 5.128545709861154 9.894811957562357 5.70737564244488
1497 1497 1 0 5.598900795262509 4.845723061991677 5.8944965803282905
1498 1498 1 0 11.422180322442994 6.315075725117802 3.8311741431487043
1499 1499 1 0 10.362749970301106 6.080055567293836 3.388239155777458
1500 1500 1 0 4.566580133798337 8.426403384974687 13.942114611171295
1501 1501 1 0 1.5339866209720416 3.315897511269089 7.62863301542338
1502 1502 1 0 2.7328430025066868 0.759640778724038 1.373668724038691
1503 1503 1 0 1.7760250349870619 6.132422232791129 4.773298401377586
1504 1504 1 0 5.065298340989025 2.2469383949045887 7.532781084057966
1505 1505 1 0 11.714613631159878 13.2541331864849 1.746733345610461
1506 1506 1 0 10.021346846760016 3.5079133143781163 11.184370126421612
1507 1507 1 0 9.207961343995569 0.7343665616753312 1.9997716500895926
1508 1508 1 0 11.60908783781561 0.6862158999598698 4.209854216644416
1509 1509 1 0 0.8293784711617381 8.892254391287834 12.024340584559225
1510 1510 1 0 10.310047631768587 5.649340576904029 11.945758613519814
1511 1511 1 0 0.16345072194863586 11.046613386152016 9.8615209708912
1512 1512 1 0 4.661197338375827 2.4381651986171766 5.383327981978997
1513 1513 1 0 0.3888163047375859 11.458982662269861 1.3442615005842626
1514 1514 1 0 4.337861391309461 3.4044614423814474 13.131860079669034
1515 1515 1 0 8.576012298359194 13.480605046513844 3.3187136897043943
1516 1516 1 0 8.534380890376127 0.39017333647532165 4.481773197306428
1517 1517 1 0 11.633785270216915 2.863886909644123 10.490101220743268
1518 1518 1 0 0.03317454987662979 3.6506049671276126 1.639787487489725
1519 1519 1 0 12.930010235991537 6.298725309923395 3.6267987358142455
1520 1520 1 0 1.8855479809909441 4.905294755501686 2.231464342216697
1521 1521 1 0 9.971905359278189 12.850275267327593 8.904926586683322
1522 1522 1 0 3.7184179640726156 12.514165724783068 7.391202845626742
1523 1523 1 0 9.138517819014629 6.923078120821099 0.17321820633091226
1524 1524 1 0 4.108132375460401 9.34399251771234 3.59195028362359
1525 1525 1 0 6.112970718494191 12.271570982354879 0.9434187571076118
1526 1526 1 0 11.532303180604794 13.94212191959689 6.231752795975049
1527 1527 1 0 8.73359603627819 6.696799477705728 12.913370156659
1528 1528 1 0 1.068068184114088 0.3154239878309817 3.255346287886086
1529 1529 1 0 12.807852684191909 2.563155740764592 4.138128141065223
1530 1530 1 0 12.664671029430608 0.7431632945948302 1.9809686599091314
1531 1531 1 0 8.677630854553678 7.370017953540934 2.5368676175410223
1532 1532 1 0 13.521476384063131 6.72512782923509 4.909395085398243
1533 1533 1 0 7.307330784559055 5.120240054586149 10.18427020277585
1534 1534 1 0 11.04808937249728 6.1749730926741595 13.813994485306191
1535 1535 1 0 9.612800888700395 9.00534989822377 2.0878224745946605
1536 1536 1 0 2.1823828812616317 1.4739261070036125 5.516494674845355
1537 1537 1 0 5.816841851920254 0.18763497541389645 3.434281714106516
1538 1538 1 0 10.482735698775635 11.87216503479459 12.461589255858726
1539 1539 1 0 7.107016042183018 9.249470028884769 6.43866808971336
1540 1540 1 0 10.228629741715958 11.5428624288151 13.152915851709341
1541 1541 1 0 8.743825403863612 3.355130632474068 6.4779330032227795
1542 1542 1 0 8.026878468819794 12.015420887668053 0.960050367721873
1543 1543 1 0 3.747560483993009 13.438895859894059 8.167431125789115
1544 1544 1 0 10.081214063063202 4.55711060409576 1.862803150521597
1545 1545 1 0 0.5646268680903843 1.3471685145816967 2.057563555150177
1546 1546 1 0 1.90000210918383 12.806569912487854 12.010978048096511
1547 1547 1 0 3.262687727843277 9.687500505393826 5.690783724030127
1548 1548 1 0 8.282278421240028 13.283735335661897 8.583511352897235
1549 1549 1 0 13.100710562181536 3.335051978417999 6.0858768052450865
1550 1550 1 0 2.3963485764159413 6.547337370677873 0.23048712426606027
1551 1551 1 0 0.07103850838440433 13.701287528973513 11.834697475171938
1552 1552 1 0 1.2624530658876765 5.187335553911791 12.508394232837665
1553 1553 1 0 12.579953845375764 8.780458108884549 7.649188921560166
1554 1554 1 0 9.344147172334708 5.2300940019301265 11.125441455067024
1555 1555 1 0 4.819235997480363 12.747734310703125 8.09076437316658
1556 1556 1 0 6.55002687672067 8.0666713335937 1.8808608314098443
1557 1557 1 0 9.327159439267383 1.3858062884064501 5.106426513881293
1558 1558 1 0 5.045447028337386 10.900237754652272 5.260176979313739
1559 1559 1 0 4.222933528733211 12.215952171376868 2.9785633705744625
1560 1560 1 0 6.593773462458675 6.229291870544708 6.892238949541353
1561 1561 1 0 5.971142938753719 6.285199788131389 4.485809868218994
1562 1562 1 0 13.566858594694054 8.860651507410257 10.556545809906318
1563 1563 1 0 10.409846209135317 2.803100043547508 13.005580916717486
1564 1564 1 0 6.999540644378827 9.902394456014413 7.550055917120641
1565 1565 1 0 12.222435722626528 13.795578325026126 7.493436625701376
1566 1566 1 0 13.04962618526182 9.181287716654282 13.136000630477739
1567 1567 1 0 1.1407851611856517 9.454135983970534 1.887382201146349
1568 1568 1 0 7.917637289653549 8.022544325667953 5.031308114853549
1569 1569 1 0 7.582996705402872 0.4387028460367264 3.4168988778304294
1570 1570 1 0 0.19018959369252234 9.365776743692063 4.303043608392169
1571 1571 1 0 8.121000545089982 8.016948247297773 12.332541219021776
1572 1572 1 0 9.43656618776587 3.006008380342232 10.054777857923094
1573 1573 1 0 9.114070929846738 12.275012626972309 3.235047995885576
1574 1574 1 0 2.3365134020258003 4.340463935184785 11.755995212596059
1575 1575 1 0 10.28707534117124 10.065122414369469 10.044677188406752
1576 1576 1 0 4.6078825205535825 13.818919483064846 4.376099485481539
1577 1577 1 0 1.8651819533134308 0.07222260180269305 1.590924008242593
1578 1578 1 0 6.723647926028604 11.418542310581426 11.893606061245444
1579 1579 1 0 3.0538595156963644 1.6771998824843448 13.390629339012568
1580 1580 1 0 7.807529675215645 9.140561949896469 10.828354875612508
1581 1581 1 0 8.41159005257068 13.971518485789252 12.556781015202871
1582 1582 1 0 0.0019841529747871185 12.230377516983301 6.951160632226288
1583 1583 1 0 10.317311186114607 0.04372178818137616 4.994278331187108
1584 1584 1 0 5.108953735201438 12.508624771131183 12.186076034227899
1585 1585 1 0 5.045932463641915 1.8112952929772386 3.313560788173802
1586 1586 1 0 6.367519349026414 12.809366079655234 4.075722980977952
1587 1587 1 0 6.676465516910048 5.540518411678393 12.38464664995365
1588 1588 1 0 1.1844912145657287 5.450982636072377 6.890582193906488
1589 1589 1 0 6.221439984629044 13.093187082897195 7.669054144209458
1590 1590 1 0 1.8107099708060896 4.095684236769701 2.539552576639247
1591 1591 1 0 13.074857498153413 4.581058242427914 3.664050952876875
1592 1592 1 0 9.999666628535758 10.41361679230511 4.522837267301147
1593 1593 1 0 2.512773747279112 8.153561939545915 7.619750418749479
1594 1594 1 0 13.287455831721438 0.3746415002205317 2.407629010795499
1595 1595 1 0 0.8012786057846519 11.805465022113859 7.616308554095991
1596 1596 1 0 10.617430392845128 2.708122432813695 1.2065994754881826
1597 1597 1 0 11.26024699111024 0.9817055407487094 0.4817045475311263
1598 1598 1 0 0.11172147668028753 5.019864193239116 9.972762465194174
1599 1599 1 0 11.432857268807133 12.321214912353934 10.769015328476712
1600 1600 1 0 12.113589018442143 7.433348367067467 1.5600246892650833
1601 1601 1 0 6.444468180465259 5.662507308009799 2.244629741261818
1602 1602 1 0 0.017941419339620367 12.13251792324867 13.756725967051542
1603 1603 1 0 3.0249879199396306 1.8398707682464792 11.211785037490232
1604 1604 1 0 0.7987264657948254 1.8400645743771542 3.4421406056574937
1605 1605 1 0 1.9124645247986258 3.682702687502423 2.77004850888409
1606 1606 1 0 0.08389531981146621 7.795010917571981 13.412572063225486
1607 1607 1 0 6.248689617328193 5.412134194373345 4.7718934877144275
1608 1608 1 0 10.894418125326013 6.170676305209788 0.6988299627425142
1609 1609 1 0 9.632236612579604 5.274174516496292 9.282116156953766
1610 1610 1 0 10.752419379981534 13.436701468821308 6.525021150102086
1611 1611 1 0 12.097525958682747 4.103710117864277 1.1298826752156013
1612 1612 1 0 12.168487941407898 4.8222191224179936 2.353857373281755
1613 1613 1 0 12.608361232379215 7.603944493537854 4.845325265076506
1614 1614 1 0 5.32804983754048 8.414060885617072 9.1973072196104
1615 1615 1 0 1.556216788143451 10.152752231766591 9.464630028031273
1616 1616 1 0 1.4432525112231094 2.6431703466761047 12.577064274993122
1617 1617 1 0 7.6930946328647165 10.333951840922317 0.38174733793263044
1618 1618 1 0 7.708421677126363 12.802480026633804 5.199964070136135
1619 1619 1 0 8.193301282095586 12.303202163734877 10.687819048660463
1620 1620 1 0 2.804427940211464 5.15888802066194 1.994800219843585
1621 1621 1 0 11.732531797002098 5.000964885738918 2.496368878105617
1622 1622 1 0 4.193505560816373 7.6257659501555946 11.18741252307835
1623 1623 1 0 7.714414767898165 2.3020041841692254 1.5166748310739075
1624 1624 1 0 13.942766609409606 4.086022587623977 6.516633446303388
1625 1625 1 0 11.54421951303348 3.779274793539065 0.10604853441924188
1626 1626 1 0 7.74435665644282 0.7374142539096714 13.276350369539077
1627 1627 1 0 5.22798987127712 8.354191097564668 0.9413850461030195
1628 1628 1 0 1.6823789827741313 2.707089467376995 12.719818469929798
1629 1629 1 0 0.016959927549612456 1.202025610916075 1.0713633937946516
1630 1630 1 0 2.5688025407044357 4.589093786662907 1.762786357613482
1631 1631 1 0 4.119283128090825 5.565123460585725 5.495858233469016
1632 1632 1 0 3.8588865894644657 13.028839288622528 10.590454545897629
1633 1633 1 0 12.797519930831049 9.003312703742933 8.09192360658448
1634 1634 1 0 10.600590289893878 3.9705471877028455 5.662489742592799
1635 1635 1 0 2.792264721860124 11.619208235197581 9.138193221685736
1636 1636 1 0 10.806580008586675 10.4366207810969 6.486873619798502
1637 1637 1 0 11.943954265679139 1.526573549643778 13.629774942628682
1638 1638 1 0 0.5546550857476276 0.7422222012833916 1.604285482205407
1639 1639 1 0 3.3910200967962263 10.279440964077393 12.45578030736793
1640 1640 1 0 3.798512710359694 1.550956680825748 11.996533103581234
1641 1641 1 0 3.5022308445515895 6.633861305742381 1.1178544667564354
1642 1642 1 0 2.5007636304436165 11.283333291617707 11.886740444953901
1643 1643 1 0 1.415224579819049 6.791301922118295 11.332262576848283
1644 1644 1 0 12.035345799442286 9.621620421288169 12.85343606325459
1645 1645 1 0 13.140637566233199 6.739386806802817 5.1136598319591675
1646 1646 1 0 12.196717303418401 11.778193927684033 13.047206896029962
1647 1647 1 0 0.8076415705092799 4.420004281337593 0.4131397034314097
1648 1648 1 0 2.338780598161967 8.980906896903145 8.655788152933441
1649 1649 1 0 12.460009462794085 6.033452263403327 3.949726608604683
1650 1650 1 0 11.031044610045273 9.057711490477073 6.073368292925567
1651 1651 1 0 1.0775226813696375 10.940269318530426 5.178342931451499
1652 1652 1 0 0.24716052952293774 1.5107332783915721 2.9034959754226426
1653 1653 1 0 3.462343777560704 4.214553503023863 12.90284563798034
1654 1654 1 0 8.972200159606148 4.086498927912731 6.150800069464939
1655 1655 1 0 8.887098639027263 8.99156798693154 4.112598554825944
1656 1656 1 0 6.704286125763969 12.711925925446106 9.934250276572246
1657 1657 1 0 12.959128830161074 4.461037238159724 4.811664304433068
1658 1658 1 0 14.04237156735338 3.6421263916224302 7.093787767530603
1659 1659 1 0 7.333450069239997 13.457683847287745 4.574680001596665
1660 1660 1 0 3.579260877305346 6.937985152788599 7.055613365420549
1661 1661 1 0 3.6380899082097184 7.877250235952708 2.8387491941982814
1662 1662 1 0 2.991751306848541 7.45001945375828 9.541067765089759
1663 1663 1 0 6.178731262531962 4.467002948558718 8.338516032428972
1664 1664 1 0 12.34647614873112 8.156700980774778 8.47357976164022
1665 1665 1 0 13.687085586914181 13.44552508674172 2.648652682736965
1666 1666 1 0 6.787052226948749 1.2063334145398903 12.955357187013252
1667 1667 1 0 6.2932309323263995 10.842233039066658 8.13098828591171
1668 1668 1 0 3.127374612838878 8.892476145491 12.153581278032025
1669 1669 1 0 9.733824646107397 5.913437350130249 11.398124318223942
1670 1670 1 0 8.26661576613875 5.664667967304115 13.636152346587986
1671 1671 1 0 4.666135027243636 0.3099722085400006 5.510827370464635
1672 1672 1 0 4.721425239237395 3.2566419705724456 3.8674513293960113
1673 1673 1 0 11.993585458181931 1.55768913177491 13.35220892987081
1674 1674 1 0 1.8546735432106962 11.796167378184014 2.8440632376928328
1675 1675 1 0 11.018020655228726 3.538679134902345 5.96046924214782
1676 1676 1 0 2.7644572555021325 0.9856678249364056 5.171762254771515
1677 1677 1 0 7.1257428368637035 9.072364792764331 3.6588155045373383
1678 1678 1 0 0.2950631211492858 0.6297720671758609 12.063947742284872
1679 1679 1 0 7.6569827676816 6.504121873590699 2.40346641544735
1680 1680 1 0 9.912576785414645 11.593394349512634 0.7507907145435221
1681 1681 1 0 11.687208716847467 7.902270472350567 10.71190804965708
1682 1682 1 0 13.996121701743451 8.167294324392328 13.513954753715598
1683 1683 1 0 4.100971608999519 3.68127351291296 12.697160864489302
1684 1684 1 0 11.81038503907435 1.7284322181418723 7.740211616227327
1685 1685 1 0 6.96353874844716 13.730051536213601 8.094600292717956
1686 1686 1 0 8.856863063229374 8.052869565688733 0.8720392163418745
1687 1687 1 0 3.3398680233569085 0.32706802736465773 5.410470922892643
1688 1688 1 0 12.98547524990113 12.002677234499044 0.6282945309011027
1689 1689 1 0 13.027694453439556 6.7377973190945415 2.3654059961600917
1690 1690 1 0 8.275379099666708 11.640861048452459 11.1434403424367
1691 1691 1 0 1.8356804233904065 8.162920366960329 7.5956708704439775
1692 1692 1 0 2.5547446872700643 7.296091473411771 10.190809447642177
1693 1693 1 0 5.765201755763374 6.963794766601223 1.8968909399080374
1694 1694 1 0 6.834638581887825 2.368396703381401 9.964754661732629
1695 1695 1 0 2.645208209726605 13.376961041857639 6.650229009680005
1696 1696 1 0 9.653930938669317 1.45620928205174 5.0264178387534955
1697 1697 1 0 12.982063993415824 6.938804662873322 7.279964587932394
1698 1698 1 0 4.762444525276652 12.225083827303822 6.670954317074442
1699 1699 1 0 6.549553243409458 5.621249564682706 2.883175606948094
1700 1700 1 0 11.523564869988476 12.916013280688203 7.143246990734881
1701 1701 1 0 1.764445579720206 10.026031172622082 0.27615809800605984
1702 1702 1 0 3.0531099877485164 5.870340097782341 9.85749983368158
1703 1703 1 0 4.126067217881525 0.01422653460463761 8.998883402956313
1704 1704 1 0 0.3550735819461745 8.757045540426072 13.505323938276188
1705 1705 1 0 6.257538468126741 9.978000494937872 10.558939332699035
1706 1706 1 0 4.341482848391431 6.058414679140486 7.674017003962675
1707 1707 1 0 13.000464047711938 12.924817086501738 11.606034995406851
1708 1708 1 0 2.683701381620167 10.240238676118802 8.70282668807595
1709 1709 1 0 2.081601861261473 3.834121151053454 0.021217735400708298
1710 1710 1 0 9.028145872481844 8.941027976590057 12.950766122079417
1711 1711 1 0 8.234285238688967 3.0490726770543315 8.475254454839696
1712 1712 1 0 11.112732389392274 13.811088826343468 0.42303839279724775
1713 1713 1 0 10.224636725628256 10.239353312915137 3.169115911694562
1714 1714 1 0 1.2162229669157232 5.517015339737915 10.439722066690791
1715 1715 1 0 0.04930265733077554 9.903031309344797 13.447606587456507
1716 1716 1 0 8.437540573286189 7.0945215440679865 4.5753797319857465
1717 1717 1 0 13.812321119168184 1.6017370589871451 13.236527971474953
1718 1718 1 0 6.079302423305365 9.793982329119672 12.716351853800784
1719 1719 1 0 10.35559121280898 7.676457086031103 10.626391139904332
1720 1720 1 0 2.721466138920201 2.1624194659099443 11.447818830066701
1721 1721 1 0 13.231176761996833 5.061265620186565 7.059883633873405
1722 1722 1 0 6.516208110371978 5.514101834987749 3.3092826180624537
1723 1723 1 0 6.912838401530849 13.144687566877813 7.033745647233084
1724 1724 1 0 5.642581453934079 5.520894134233557 7.920059667470269
1725 1725 1 0 5.532530965145316 6.192686484351538 11.888959562596888
1726 1726 1 0 10.52298352849547 5.319144715356203 7.799583320851532
1727 1727 1 0 6.3926430759966975 11.262830135062925 6.042357266351515
1728 1728 1 0 0.8632766397651103 9.906030388012734 4.398038547002402
1729 1729 1 0 2.603042100502078 8.932114530230157 0.5756437057653128
1730 1730 1 0 12.423854985997885 1.147487362800401 12.44842114641153
1731 1731 1 0 6.705922867475317 0.7620980323121985 11.625854408392405
1732 1732 1 0 2.9873599775481616 4.74263160442775 13.013696312011762
1733 1733 1 0 3.9585575157280286 0.8534055834901619 9.41988218468212
1734 1734 1 0 0.05366643227071472 13.031555670914962 12.430077959844969
1735 1735 1 0 10.30617957698103 9.94193176849987 9.775326113504148
1736 1736 1 0 3.2760197750257083 9.258187819871727 13.045891459706027
1737 1737 1 0 4.603625604284983 10.790714021279001 3.370453728575446
1738 1738 1 0 7.507680184809861 8.76733578146239 12.83720157004451
1739 1739 1 0 0.5255764332586355 4.710641311097252 11.870629327618957
1740 1740 1 0 0.8780708053473374 13.672272892871483 11.951786907287225
1741 1741 1 0 11.216653068510714 6.04869097699577 2.7996824593620735
1742 1742 1 0 12.727106248462043 12.276305487616845 13.458418910245745
1743 1743 1 0 4.936549930064369 10.935454102633315 9.909880134950125
1744 1744 1 0 13.89372743808699 7.72050918649991 13.602220096035078
1745 1745 1 0 4.164307759364338 0.37012998741608916 9.77409299632785
1746 1746 1 0 0.6901444773797561 4.799874576977746 11.842911285215623
1747 1747 1 0 3.256324959578989 10.110417543733412 7.899750249646821
1748 1748 1 0 1.3207970328581946 4.137219735352709 13.486881340141409
1749 1749 1 0 3.42947386853729 4.503922104757708 12.111251121012439
1750 1750 1 0 3.3544413903871853 6.77597208517477 3.796096885763527
1751 1751 1 0 10.50881110954572 9.310670388456966 1.9926345427436887
1752 1752 1 0 8.674162788826145 11.125262897706298 8.531305718717364
1753 1753 1 0 6.25921908614072 10.527016946408803 9.11408798167481
1754 1754 1 0 14.05947324018718 13.262134100817379 1.2490922444175965
1755 1755 1 0 3.482269188674607 12.220750670989789 5.570976174690967
1756 1756 1 0 13.927501690608281 9.416287547594965 10.40195468514139
1757 1757 1 0 6.620369271864084 12.153162024416982 10.709206829953489
1758 1758 1 0 4.953908665795627 1.7535322950693282 1.1439651352071756
1759 1759 1 0 9.889155480152755 5.547552326700133 10.14616486302984
1760 1760 1 0 0.3507221298097271 12.951047339104294 3.698191059217969
1761 1761 1 0 7.657841539927581 6.897651613854905 6.913346951736037
1762 1762 1 0 10.296457831345034 4.1878100304761015 2.2277662596166654
1763 1763 1 0 2.637414939648206 7.956867832310881 8.18992205109724
1764 1764 1 0 2.1302377286462746 1.1559134731994767 11.859315354411613
1765 1765 1 0 3.0350428560332925 8.36016771221423 4.89510310290101
1766 1766 1 0 7.391647145866768 12.437642488153564 0.9146853981573462
1767 1767 1 0 0.9538526296136266 3.1300538505704405 13.945313657004142
1768 1768 1 0 13.955703659555024 12.879297669679076 9.598912870281286
1769 1769 1 0 2.579969365374668 11.84828424954766 5.031571894308607
1770 1770 1 0 6.78835835119614 12.440543841612447 11.811970315193951
1771 1771 1 0 2.809911995893131 1.156176509051907 12.332323929658106
1772 1772 1 0 2.4971655401909643 9.986213189714228 2.418616862345576
1773 1773 1 0 9.398728327449252 8.741237521415957 7.864472933228871
1774 1774 1 0 13.658127592478042 9.508973351777549 9.070235369506156
1775 1775 1 0 1.7668641974752668 13.530330538403664 12.654393061431163
1776 1776 1 0 8.819082308877338 6.788870351667655 1.3696098765821463
1777 1777 1 0 4.96007541378447 4.388522839877088 5.95480874231084
1778 1778 1 0 3.783335040732548 12.890118354685026 6.838487583390165
1779 1779 1 0 2.1856331275934657 12.441806054272604 6.768907827099555
1780 1780 1 0 5.134164843575993 6.278397949368369 7.3272459636679965
1781 1781 1 0 3.394549302001197 2.1865387244298953 1.8347115730200818
1782 1782 1 0 2.7045161787600045 12.068591545199391 4.22317895517171
1783 1783 1 0 3.552337064837699 13.659431705674136 4.232965759936022
1784 1784 1 0 7.2062672067782305 7.610765819201275 5.685019406736962
1785 1785 1 0 6.428087395354722 6.074446268375742 3.410403717584977
1786 1786 1 0 2.2195461592574626 7.138502963382341 11.291534877358385
1787 1787 1 0 12.884148189040612 6.407681547738223 11.774733398275279
1788 1788 1 0 9.752921154082802 4.3420712074853265 6.026864185747675
1789 1789 1 0 3.4919619588347 7.433198679739603 5.549575456916413
1790 1790 1 0 3.416673302510217 3.4951098971827004 7.984074507631143
1791 1791 1 0 10.245436474891445 5.709627393831884 12.18081981315386
1792 1792 1 0 4.1843354814858005 6.894549903042778 6.235541666003894
1793 1793 1 0 3.7043465561584084 1.3157873029732916 9.876000329559918
1794 1794 1 0 9.322455068460984 13.07194725625304 11.22937038079938
1795 1795 1 0 3.639275498222401 7.120269489644671 0.6373196143679366
1796 1796 1 0 2.0831717012296243 13.566280661302988 0.22935645045440942
1797 1797 1 0 2.808246309176848 11.613570292044807 4.893465501609006
1798 1798 1 0 0.7709032898080135 0.08143046806346416 11.843907479007104
1799 1799 1 0 6.752036851726061 2.313269259313329 4.0914398549655555
1800 1800 1 0 5.801272996749341 7.669803935605667 13.067280903355126
1801 1801 1 0 4.55248484315935 12.736791756653092 11.581263214370244
1802 1802 1 0 0.260328001486976 3.464639612862417 5.63695619013858
1803 1803 1 0 9.68064092397914 8.02893370369969 7.287450234940426
1804 1804 1 0 0.5499723921300366 6.790855471387034 12.273356414190168
1805 1805 1 0 9.49231840427852 10.533291352712482 5.338539776390546
1806 1806 1 0 1.794115971778257 4.659492528695105 0.6065599289132598
1807 1807 1 0 13.014853966962804 10.996077246803738 2.597610865099502
1808 1808 1 0 2.424276340117457 10.963668794273744 0.6153915168280514
1809 1809 1 0 1.8418413844931316 13.478917314332405 5.452586968777109
1810 1810 1 0 12.582130774175505 10.646959828307534 9.06498020430367
1811 1811 1 0 8.041945141620012 9.269182831031378 12.849446669192345
1812 1812 1 0 3.3488036520920343 11.16843290266468 5.608947902700258
1813 1813 1 0 14.00238045243211 6.1570366607892995 12.434832561686138
1814 1814 1 0 2.607054910177128 7.683488755329927 7.250556728848003
1815 1815 1 0 6.912684541129839 13.974288075772131 0.26901676939052577
1816 1816 1 0 0.6141479277623353 4.869669297815027 11.424323639225522
1817 1817 1 0 9.96543517648928 14.049578509913541 4.318217049623625
1818 1818 1 0 1.1930446920739988 6.63765238154348 9.447986574320883
1819 1819 1 0 6.858511497046065 7.341842256006645 12.373846101096456
1820 1820 1 0 6.752291227633533 12.964778326768865 1.7952368580581852
1821 1821 1 0 10.98715685862256 4.807921815220377 6.667009829749139
1822 1822 1 0 1.857674101727131 12.205945673323216 9.992161088382858
1823 1823 1 0 4.574227392036677 6.028065230738895 7.584646215744104
1824 1824 1 0 1.815391913056453 0.21421638356611572 11.54244567079337
1825 1825 1 0 6.007699459953744 0.25430687053500495 12.128282716818852
1826 1826 1 0 12.025725844608203 12.571948182924993 5.42227509812137
1827 1827 1 0 10.675205979585868 8.064268504010062 13.054589812964332
1828 1828 1 0 5.57226095665587 3.396862923549862 4.247784206723175
1829 1829 1 0 1.6818566729078375 1.914784891163979 0.18468503074861847
1830 1830 1 0 7.0752384732463005 7.917296458599972 13.076947670930753
1831 1831 1 0 6.940025811967227 9.981496420370187 0.9010329615545607
1832 1832 1 0 13.125884893142704 1.4016332676120131 1.0416940543382336
1833 1833 1 0 7.69737920938638 2.402729605965425 12.239839511107043
1834 1834 1 0 10.555113003023546 2.4502735997311986 8.989182736793644
1835 1835 1 0 13.099661853594977 6.481288125488596 10.16760301328577
1836 1836 1 0 6.514933450831185 0.3389763705364514 2.950179973617621
1837 1837 1 0 7.142020120548602 4.269506652397274 1.9440852439013745
1838 1838 1 0 2.242799703957419 9.122623063927357 4.622354762825157
1839 1839 1 0 6.9259606355210295 11.129299938117963 6.740525283070916
1840 1840 1 0 3.0932851249315263 9.076889575681239 6.090497811044148
1841 1841 1 0 1.2375679754753304 10.160771723656845 7.994022103771539
1842 1842 1 0 13.585966104112753 8.462635463553887 2.722757530308302
1843 1843 1 0 9.690626151380696 12.581134926956622 6.171071916537066
1844 1844 1 0 13.975164728043174 3.045977147156322 13.552874105893943
1845 1845 1 0 2.4782730599778926 1.4020221187650856 1.1998996752208666
1846 1846 1 0 7.87195928262595 9.00775669793292 4.65348600457992
1847 1847 1 0 0.3971067984983469 6.117870205759991 9.182586009207949
1848 1848 1 0 5.861554505943079 9.548529013110622 1.71973538402848
1849 1849 1 0 5.983757914382308 8.37933933694943 13.601454191986198
1850 1850 1 0 4.601643055374452 5.85162710006659 2.450402655565204
1851 1851 1 0 0.926265658900761 12.033409723031582 4.562403738647612
1852 1852 1 0 11.706554615925468 8.031170211425255 7.023576186719108
1853 1853 1 0 0.49229120988797964 6.052153572770977 10.262632742141546
1854 1854 1 0 7.9825954328158755 2.875201833938965 1.821489802585943
1855 1855 1 0 7.979672826953263 2.5747860301603764 8.864741391241905
1856 1856 1 0 5.458794903107939 4.434886672413391 11.880148964527649
1857 1857 1 0 6.6230502658184465 1.5308931383263809 2.4251345046150017
1858 1858 1 0 11.955720617741434 2.404972040366916 0.6639857316756438
1859 1859 1 0 1.1968151458606202 13.12427609475122 4.711547174803011
1860 1860 1 0 12.061256414497084 1.4553015979166737 5.30589089222173
1861 1861 1 0 4.821928476779651 9.158996714355624 5.195882548725335
1862 1862 1 0 5.490267966915757 11.771960598221296 0.6766634972651121
1863 1863 1 0 5.2127909406177615 5.278463207320955 2.5023933366314584
1864 1864 1 0 1.6950451184051312 1.705279539173598 8.820663637905954
1865 1865 1 0 11.136636337499944 10.784054643803893 7.263333783815644
1866 1866 1 0 7.901158894488553 11.044316402859176 11.907583923087174
1867 1867 1 0 8.945427030742849 3.9177410885902337 2.1885312815248046
1868 1868 1 0 0.34702106892559725 13.34914596956458 13.857627877302567
1869 1869 1 0 7.3411752972479585 2.5486412484006733 12.615762786165309
1870 1870 1 0 0.8744996601438041 7.267370759487187 9.275288140621695
1871 1871 1 0 8.093917908110916 12.638684296727764 8.737706052327296
1872 1872 1 0 0.01604125570740267 6.4765322411287904 2.338887872474241
1873 1873 1 0 12.265639399315576 8.511685301088793 13.17876901762926
1874 1874 1 0 3.8706878784478933 6.347243376038263 11.586553657135314
1875 1875 1 0 6.700899630159715 9.502167959628375 3.5704468312269078
1876 1876 1 0 5.53941010922593 8.867015887218189 5.071882281299142
1877 1877 1 0 11.349437253039211 13.577108080099777 6.467028280107864
1878 1878 1 0 6.91276054023662 0.9299239299514094 9.854552831578486
1879 1879 1 0 7.186575843348566 1.5388674671453324 8.770570496459706
1880 1880 1 0 3.4288908938338856 4.715155117376551 0.7722758511585551
1881 1881 1 0 10.035614205078828 5.691628914569365 12.989622648256798
1882 1882 1 0 12.8060949013455 1.370463421729441 6.296660285472558
1883 1883 1 0 1.2421419160113867 9.822870669229944 2.926250091520866
1884 1884 1 0 13.290017594346503 12.977058027025137 11.622858916218695
1885 1885 1 0 3.1926773595938753 0.9455233112179818 5.494583361989406
1886 1886 1 0 12.17439460686363 10.179311644336874 7.925815478525808
1887 1887 1 0 12.026734838348414 11.819427459935328 9.772298990384568
1888 1888 1 0 12.769463798769461 9.083949870251923 12.444726022751878
1889 1889 1 0 13.700737971077874 2.4136250701140356 5.153770169253513
1890 1890 1 0 0.05605557566982998 2.804157685688902 13.605791262708085
1891 1891 1 0 13.876135720669296 13.001803824662023 3.775804094376688
1892 1892 1 0 12.36607943564434 4.38010418624763 11.334757746850622
1893 1893 1 0 5.811549047012988 13.52456827080322 0.9274870174220207
1894 1894 1 0 1.973735189409117 3.1647046595826183 6.058661442834067
1895 1895 1 0 9.614395477511158 8.355843310648897 8.264684357991927
1896 1896 1 0 4.699062497010605 10.21085138847306 3.4604445533064148
1897 1897 1 0 11.422709044482916 11.42074041742336 1.362416758150473
1898 1898 1 0 11.421944929667497 10.363335702486882 8.48458098232131
1899 1899 1 0 13.310235948191911 2.0928761226125476 2.6241476587239934
1900 1900 1 0 7.281177759079554 11.744032352314841 4.80469183307152
1901 1901 1 0 6.636777468226343 10.028828264200701 11.913447345136005
1902 1902 1 0 2.2101150234392435 13.705424522724627 6.261847168135938
1903 1903 1 0 10.847868955540024 3.4981268357102615 0.13578380714042596
1904 1904 1 0 3.839125678905163 6.341152853483509 4.99324651040364
1905 1905 1 0 3.19327956894156 5.586891290005152 7.082901702773439
1906 1906 1 0 9.432523009046847 9.727136359285591 6.826542216628229
1907 1907 1 0 6.390871210351869 11.836636435070274 13.028429510343692
1908 1908 1 0 11.949347933520876 1.1579924175707867 1.4384315619847503
1909 1909 1 0 2.6183089567768425 1.6354449876785315 6.1907608605157645
1910 1910 1 0 0.2658515016340684 9.48112324277321 6.207835389968781
1911 1911 1 0 12.164213253460085 2.439347488614532 7.1184805083066465
1912 1912 1 0 3.050347118644833 8.909147349805087 11.03418138454394
1913 1913 1 0 0.5371311890481911 6.279301761356867 1.6396092179472357
1914 1914 1 0 13.090777045280952 0.22779261866785525 3.528409858781736
1915 1915 1 0 10.84127215953875 2.748084330858105 11.710576997284875
1916 1916 1 0 5.413223760971683 0.5138759450691004 6.147628451212855
1917 1917 1 0 8.029967413174754 5.930184457514396 13.895897118809925
1918 1918 1 0 10.075878629684725 6.690870417766131 7.947648231504281
1919 1919 1 0 13.262157216895687 6.739266809180242 2.6205045672822367
1920 1920 1 0 7.551037728024055 6.783804192156575 0.6006280792191467
1921 1921 1 0 6.325935904157479 3.880831699135004 7.893745167348026
1922 1922 1 0 13.059399167313979 5.973172705268886 1.7703101483537338
1923 1923 1 0 1.6570901042093367 2.7101045345053274 7.10904055545399
1924 1924 1 0 4.19776034247299 6.5296846742834465 8.085825418969597
1925 1925 1 0 13.216585154298562 2.640460962514235 11.421819433870814
1926 1926 1 0 5.639813698887307 11.882166215539838 7.981190197924537
1927 1927 1 0 8.32927660090883 3.1845375673615153 7.3990705777736405
1928 1928 1 0 12.918536907722915 6.688439813605428 11.154013983256958
1929 1929 1 0 10.978632096963073 12.080951384412288 2.766023231000688
1930 1930 1 0 1.4964229105368896 4.879284142899747 4.5675703188033925
1931 1931 1 0 11.209372088179016 11.176798440438791 6.2183429673611705
1932 1932 1 0 9.504435664848767 0.7950600783549192 13.318110446693495
1933 1933 1 0 8.886109532949517 13.47336611136061 13.655185017515857
1934 1934 1 0 3.883420218306565 9.918225544907784 1.4641009605170667
1935 1935 1 0 7.480688159080491 13.002123193161129 0.14194681247109314
1936 1936 1 0 5.765274333327078 8.607174244275887 1.9894371646474496
1937 1937 1 0 7.1910231970300496 1.8220490675822274 8.335066102131897
1938 1938 1 0 10.047959929396201 6.758995523049629 3.7571181764767374
1939 1939 1 0 13.321318585310168 8.663203225440707 7.6659783914962185
1940 1940 1 0 2.9028348272602615 4.529304163073614 1.2369698359623071
1941 1941 1 0 2.601878340979049 7.773693638361934 12.48720771233388
1942 1942 1 0 6.258508227215054 6.344526366430168 3.736127709129932
1943 1943 1 0 4.9734559143741075 7.4835273783293434 9.981296131696693
1944 1944 1 0 12.195857111804091 7.2997546013259385 11.333699094362537
1945 1945 1 0 2.8632310651177098 5.124422811670241 13.172797763506702
1946 1946 1 0 0.0514999934415935 7.7757046510361425 3.6941239180249315
1947 1947 1 0 10.902194638131672 1.2603519849355747 8.432705310034413
1948 1948 1 0 13.293266869584535 7.763795009759027 13.329726300108442
1949 1949 1 0 13.380687291905097 4.9997380989163425 5.264438836643912
1950 1950 1 0 1.8987364418326256 1.1879288923608242 3.2413742755775097
1951 1951 1 0 9.714024954742415 4.3330270124424075 10.444337100332586
1952 1952 1 0 1.9323552973140008 0.09424924467750852 0.7256568534533914
1953 1953 1 0 5.385831956148137 2.960666009567483 7.6979838135718905
1954 1954 1 0 13.195925668307893 7.562764629550691 11.347123474453996
1955 1955 1 0 4.250560297346318 1.9846562587091696 10.35176791662456
1956 1956 1 0 4.0519909041712285 3.3150631567280904 11.008765365871923
1957 1957 1 0 9.369639035359244 11.217759240450631 7.153334642392171
1958 1958 1 0 5.04259957143621 6.2549657591411965 4.76865717780517
1959 1959 1 0 1.4452610314112633 2.9450561984207977 7.096681733858483
1960 1960 1 0 5.025830371615356 4.860645638154391 5.873785178070567
1961 1961 1 0 3.2603861506965077 6.670695161779863 12.974598949348918
1962 1962 1 0 5.943986749484064 0.09256260882929021 11.912849928290598
1963 1963 1 0 9.655112273591296 6.313645465394016 10.381520359171603
1964 1964 1 0 6.714692726661889 6.550580465811242 3.0302293003407854
1965 1965 1 0 8.58033839979741 8.571612881768914 13.92527277471483
1966 1966 1 0 4.547802489391778 10.90739849605075 9.075938328966155
1967 1967 1 0 13.711772346685638 4.560866770138209 2.730300881983751
1968 1968 1 0 0.6112569815979694 2.092966980096575 13.499271007185925
1969 1969 1 0 5.145461835762443 13.210355321230345 3.6363679350897056
1970 1970 1 0 5.667197930319172 11.512431877921259 13.178793566680566
1971 1971 1 0 0.9556492248829368 13.899413079949813 11.817596076526854
1972 1972 1 0 1.96661093312223 10.576271579120215 4.249418990091982
1973 1973 1 0 8.251851336952683 1.4994939853527047 0.5661159554131275
1974 1974 1 0 2.1379535003605636 12.97616234060627 13.967085547696884
1975 1975 1 0 6.817753476970403 2.982953054248914 4.612960780950037
1976 1976 1 0 8.247687791174187 0.5738507552905875 0.27473401073511955
1977 1977 1 0 3.6078810144691564 5.267263154538543 0.6799939581517336
1978 1978 1 0 12.248013100578397 3.4956424982119714 5.073265607659122
1979 1979 1 0 5.628560400986974 4.734477926284545 13.418037980142314
1980 1980 1 0 13.252526115762647 8.73321203769526 3.8977815697571905
1981 1981 1 0 0.39714641488555313 3.3848696012729107 1.468709327415509
1982 1982 1 0 5.500682728856751 12.714337583470684 13.236070925123608
1983 1983 1 0 13.03989335690886 8.243037781993245 2.9295138056999592
1984 1984 1 0 0.6083670424294936 0.42565272475674343 0.29283899769390936
1985 1985 1 0 10.718403091418201 10.125500976809889 6.801152073204083
1986 1986 1 0 1.2495710984969624 7.718966997453868 7.653948781692662
1987 1987 1 0 0.5348123433576599 4.255612574507374 11.995452078534788
1988 1988 1 0 0.8660941871992851 0.11881088899488838 11.456160153759306
1989 1989 1 0 13.347680794339867 12.428744056451066 10.286067956452449
1990 1990 1 0 0.46481023251936865 12.980910508655144 4.863820507614972
1991 1991 1 0 7.999778001478443 13.808566203572026 8.202666120520941
1992 1992 1 0 8.839333508494148 3.3075471913827306 7.513999500866691
1993 1993 1 0 11.502382624877807 4.795004785867809 4.013448156721197
1994 1994 1 0 8.709118352081097 0.9763359400498249 4.661937037882151
1995 1995 1 0 10.013692887150853 11.764360523013819 0.26622036018105494
1996 1996 1 0 10.507121373964221 1.4679050207446187 9.547849860947268
1997 1997 1 0 3.1982485042666826 1.8230208270427548 4.597836901133475
1998 1998 1 0 4.288244942620181 5.463893736148769 5.2905878207754915
1999 1999 1 0 8.638297812766188 4.1729402529591395 11.930732966980035
2000 2000 1 0 2.2562905326478697 10.988921806730584 12.613886018917855
2001 2001 1 0 4.807328804262852 0.4982759303249257 1.3285988316677328
2002 2002 1 0 0.7210347415167693 11.455933777483947 10.979533849138631
2003 2003 1 0 4.165810005998824 1.8542491399103653 6.981830897525438
2004 2004 1 0 5.887433489970323 2.642394869612499 6.271889642739394
2005 2005 1 0 3.5979061199801907 8.212408206879635 10.170121241713753
2006 2006 1 0 7.434340714290192 3.6263191520242906 7.389559363775902
2007 2007 1 0 13.03939081265891 1.7140380973506923 12.09516944352872
2008 2008 1 0 13.966102226489008 9.327477972179187 3.8922457268197954
2009 2009 1 0 11.129988363957365 7.435335840623199 1.2598448226482541
2010 2010 1 0 9.477438676138146 5.870487797299752 7.0178578069991975
2011 2011 1 0 7.836950212641409 12.788065940606243 6.322494271237265
2012 2012 1 0 2.7500201701548455 4.169036416590668 11.728293069586986
2013 2013 1 0 2.2740330591830746 2.754082049509378 9.930423381299622
2014 2014 1 0 7.931659057254105 13.816840349074857 9.760402993460346
2015 2015 1 0 6.937612457155994 12.547189469386465 4.330485949101161
2016 2016 1 0 10.751752906280762 0.1267949475491461 6.889840271534499
2017 2017 1 0 4.314150353673936 7.616559955677088 3.673073639287118
2018 2018 1 0 7.320471971489481 4.130171900294802 0.57232970662666
2019 2019 1 0 8.608325062258482 0.6410546419454063 8.668672724297089
2020 2020 1 0 3.6231118886528275 7.2821985080084 4.85452414221275
2021 2021 1 0 11.546977921005055 10.53464322297156 4.503006828730022
2022 2022 1 0 7.6598973194826 13.91450010058148 3.906715995807039
2023 2023 1 0 2.857481930444205 6.061570843475492 9.22948732791862
2024 2024 1 0 7.397599609753024 6.868608133439938 0.3194443222914413
2025 2025 1 0 11.449310527041805 11.73682588723858 8.151848984908996
2026 2026 1 0 3.508716539065193 1.124287905932011 13.120024112344407
2027 2027 1 0 9.572123551906207 0.7514543635233465 3.7605841307693306
2028 2028 1 0 5.6122739484058 7.6867956151466625 8.269058968876374
2029 2029 1 0 5.849960910228473 2.548082284157738 8.265879370045353
2030 2030 1 0 12.475715877577638 3.6062564829074883 0.5209410910627061
2031 2031 1 0 12.162307011101754 7.817488513316224 9.885293608914113
2032 2032 1 0 4.58233170498348 11.05951420871269 11.628548727840432
2033 2033 1 0 4.068997495046662 7.155368532340998 12.475066332116317
2034 2034 1 0 9.774709600420614 11.715328623485897 4.850514848437424
2035 2035 1 0 3.9530697469177674 4.14372614343182 6.328646728794398
2036 2036 1 0 3.932569445592195 12.103788142011432 5.02381845696599
2037 2037 1 0 3.3008870299216024 1.184832368108194 5.918328152517022
2038 2038 1 0 12.051398618661874 9.47133453100387 0.910916115597811
2039 2039 1 0 4.089392478708429 8.210077170127906 8.401015075552154
2040 2040 1 0 1.8198781910850594 2.0361308128381674 1.5526766993491121
2041 2041 1 0 7.4383163694518535 12.453820979159136 12.5150781883387
2042 2042 1 0 11.589328917208292 10.922448102225955 7.464810196237265
2043 2043 1 0 3.9529328268449944 12.270097862698464 7.335651682449482
2044 2044 1 0 11.679415451570378 13.066261869531326 4.089097175696287
2045 2045 1 0 4.883862066150068 5.0720364173708194 0.14996867626600632
2046 2046 1 0 9.200153271092255 9.349404489195718 11.269681958385684
2047 2047 1 0 6.7644548737955255 3.8533461184261975 13.131357278569602
2048 2048 1 0 12.248059569314307 2.474545213672437 12.529972758103169
2049 2049 1 0 12.692416221269488 1.615957177930205 2.557513692512173
2050 2050 1 0 11.409036286861662 12.011688577690766 1.8195577055325405
2051 2051 1 0 7.6380558185980485 10.612760151349987 13.323090370282754
2052 2052 1 0 11.514433503121545 13.17948569094099 8.786090270174217
2053 2053 1 0 7.404566424216401 8.91103741937102 2.9439825644283766
2054 2054 1 0 12.52955961972088 1.2944504491939874 2.3105943856527373
2055 2055 1 0 0.23954990746562657 10.224589073474622 0.10582463689969249
2056 2056 1 0 0.5633787635661892 6.324277358643348 12.637111448237432
2057 2057 1 0 13.958261918036168 8.351817430636899 13.077769998041521
2058 2058 1 0 12.210483352778947 8.601167024779526 1.8701652969886486
2059 2059 1 0 13.974335699658106 8.989287213241596 4.789660594994849
2060 2060 1 0 4.123337385753116 4.263785916099122 3.1069155104147055
2061 2061 1 0 4.1134172019313615 7.170533584070671 1.5177730011977204
2062 2062 1 0 13.479618477466989 3.6638272943564885 10.147736360703485
2063 2063 1 0 8.15799651454488 13.997604189670128 6.76221584319528
2064 2064 1 0 2.012806686560064 10.236552420044806 11.000733421686984
2065 2065 1 0 6.595453724089051 3.843163013207894 7.055799484246389
2066 2066 1 0 10.129541570595762 3.161613982075517 2.0647835623987616
2067 2067 1 0 1.2749963760384069 0.18116592369380577 12.917120202383996
2068 2068 1 0 9.275902419641353 2.75575347209264 8.593712685352868
2069 2069 1 0 13.804262974568823 12.843729717174893 7.709150549310464
2070 2070 1 0 0.3458809332294434 9.347692777763351 8.01645649224764
2071 2071 1 0 4.959293956194055 10.463295759004184 9.21236525286349
2072 2072 1 0 2.4230376616807767 11.129355307185934 1.6999970005461833
2073 2073 1 0 11.239702598318562 11.823666287979888 3.8496937571697627
2074 2074 1 0 12.83576442949242 12.243201356004827 6.066972328419435
2075 2075 1 0 3.697266298587013 0.023019715246366316 3.0561138602081077
2076 2076 1 0 2.170200200455772 10.298628509216988 12.644453409047099
2077 2077 1 0 0.3418670192472412 3.017026986796164 9.168984419055242
2078 2078 1 0 6.305702236496573 5.5971886399099935 11.914655415909882
2079 2079 1 0 3.3930596658478245 6.533882861503139 5.24923116685736
2080 2080 1 0 13.600686365102463 5.312528903119655 7.5681726232391835
2081 2081 1 0 1.2152301687079068 1.7050260765184377 10.9044556773197
2082 2082 1 0 11.910597674133301 2.1787750979267244 8.87210211962368
2083 2083 1 0 13.354455465563513 4.019069422465751 0.15709224013507483
2084 2084 1 0 13.331716603039467 11.958788119422076 10.422894262262508
2085 2085 1 0 8.81351362285765 5.374448712601404 5.830345445954163
2086 2086 1 0 12.11315516831919 9.922893228662625 5.340560800317321
2087 2087 1 0 13.357022382875394 13.064490914361194 1.7129818121006717
2088 2088 1 0 9.082898829411503 13.253359027329882 1.3376924986538712
2089 2089 1 0 5.7046338681558755 10.734813331517877 1.3523355794359455
2090 2090 1 0 7.369693524195074 4.169056414974518 7.993329800506225
2091 2091 1 0 13.575002349669855 4.1856724271235075 2.202022828623236
2092 2092 1 0 0.614239367881019 7.111428908704318 6.37535430090975
2093 2093 1 0 6.232742917659922 4.618068303496496 9.617699198239904
2094 2094 1 0 2.110750443803112 0.7860771381884568 10.04710126359317
2095 2095 1 0 7.278895932456667 5.590999169566356 10.068083443848558
2096 2096 1 0 7.588734885978198 12.294580881852003 4.109049940790078
2097 2097 1 0 12.490036657405222 6.3455801675602235 2.664021090756697
2098 2098 1 0 8.83934446156719 11.525438359371721 6.310943858817621
2099 2099 1 0 12.89753471195755 0.4389362606624881 1.3944508153437476
2100 2100 1 0 3.4068151894577574 12.890706259156923 1.1378241420266904
2101 2101 1 0 7.0586455491271956 6.879915893459889 9.769969412677153
2102 2102 1 0 9.42805528758103 8.547981426930878 5.088991952456896
2103 2103 1 0 8.884969649789337 0.4689970526881186 1.7019497608107421
2104 2104 1 0 0.42637266906816623 9.11312345351134 7.792755691793185
2105 2105 1 0 13.53384614754577 5.2071879872062885 0.4158944228671876
2106 2106 1 0 1.5270052030340295 10.210436017203028 6.600129346247983
2107 2107 1 0 13.58623035365118 0.2438618604547549 1.0439503528706275
2108 2108 1 0 9.948563065853476 7.766538401832496 9.705099969811226
2109 2109 1 0 13.177911030540884 8.744237742898907 12.013682581034848
2110 2110 1 0 0.008390063766701891 5.530382880757291 0.2314939254738943
2111 2111 1 0 14.000206950994354 6.460929410035744 9.328887882585983
2112 2112 1 0 5.156302171384367 7.516749301078967 10.581572458008708
2113 2113 1 0 13.268229645525361 0.5902658627023536 6.806968748729519
2114 2114 1 0 9.703950991687396 2.558544591834603 2.293348264435951
2115 2115 1 0 5.357987748688164 0.19923539279615243 1.7384909286327108
2116 2116 1 0 4.457175351871025 5.20686655892907 6.943685121914883
2117 2117 1 0 6.52573553862203 7.8306178548373335 0.9377385287749186
2118 2118 1 0 7.064347316485329 2.966874060670507 10.005911613615329
2119 2119 1 0 11.086251145429856 3.6880039051154268 3.4461378847548403
2120 2120 1 0 12.782062723927945 8.320766644389648 5.7236751223958375
2121 2121 1 0 0.2401441478086523 0.05305678012039685 2.781405140419425
2122 2122 1 0 2.773660055194592 1.1164397906664203 3.628188902660573
2123 2123 1 0 7.402172944466612 8.358116453220214 9.365020186808069
2124 2124 1 0 6.757693670212334 7.599064675839172 6.1105965781628075
2125 2125 1 0 7.654472602596849 5.904374924209417 2.2651447033804604
2126 2126 1 0 11.56569573765219 3.2552248362584404 10.963741394746833
2127 2127 1 0 9.199162900532352 9.820315760718152 7.408434755702042
2128 2128 1 0 2.8378549262016017 1.0082927840839047 2.9996751591860824
2129 2129 1 0 5.913968468191745 13.827633665316041 9.772262336711671
2130 2130 1 0 2.6425031792232114 11.511792185251052 0.5288832040800935
2131 2131 1 0 10.078956165216779 10.291900087502999 6.661773120115661
2132 2132 1 0 1.646494112138295 5.037934138220587 8.628037382180644
2133 2133 1 0 10.585651159937495 3.2970321230372344 0.9579934067678263
2134 2134 1 0 12.97970347447686 8.41830387306596 0.09851886505425647
2135 2135 1 0 5.5088509687090275 7.7026177931102024 8.165660881552144
2136 2136 1 0 1.9290742822759155 8.796267342183427 6.734507672240769
2137 2137 1 0 7.896714836857231 1.2997954484029581 1.6347533118105755
2138 2138 1 0 13.603041164206946 6.777305424808433 8.246144630662052
2139 2139 1 0 7.430017802901614 4.640424163982181 12.989389458891626
2140 2140 1 0 0.9157634902322108 0.441926138109698 12.508479799161961
2141 2141 1 0 3.2881185858882462 11.286134288726759 2.2581320018583986
2142 2142 1 0 10.546971954982576 7.250377531930739 2.6428670607817923
2143 2143 1 0 12.115818545642108 10.349244890054583 9.583293639330899
2144 2144 1 0 7.6159427065864564 11.96814222475612 4.694976542639827
2145 2145 1 0 12.104678770532297 9.268693395132194 13.785913351613143
2146 2146 1 0 13.988469306654038 10.104576492544023 4.542673785534863
2147 2147 1 0 1.3076151640210285 11.268447337172292 13.580611959259954
2148 2148 1 0 5.738186526622998 3.4466224145976394 1.2540049819845265
2149 2149 1 0 3.380022814379353 1.7030269772309805 9.787881460342255
2150 2150 1 0 8.53243527833867 7.238052418269324 5.005684792653842
2151 2151 1 0 5.965276550358545 6.738964529028576 5.646656407032646
2152 2152 1 0 13.398817366292182 1.5711885618574615 11.736815743866229
2153 2153 1 0 10.143014942132314 9.17195679189424 3.7786390237514147
2154 2154 1 0 5.455616153775843 4.1469251459545 6.7464104529780755
2155 2155 1 0 1.4209643632094584 9.159127606797535 5.3817435400610405
2156 2156 1 0 7.8657609988673745 9.923927485013238 11.238739616576579
2157 2157 1 0 12.776250548847162 1.726376625212085 9.032019483565833
2158 2158 1 0 13.614617134673908 6.111368029578061 8.09091021102963
2159 2159 1 0 12.870048095194988 7.628680326919284 6.615619652940389
2160 2160 1 0 9.356205800245665 5.400490903932614 1.4165452092247592
2161 2161 1 0 9.611282370015555 4.996719945073289 11.903615130445399
2162 2162 1 0 9.771507816279726 12.31949289775208 0.45653727371896896
2163 2163 1 0 6.565997489031 0.6786595010010842 10.302516518105197
2164 2164 1 0 9.592812141779236 8.058569828671876 3.4792579799704444
2165 2165 1 0 11.293836525836602 6.5400639533805505 6.300725014101596
2166 2166 1 0 4.160396817471701 8.314702699250603 2.3240689742010305
2167 2167 1 0 5.8986971631450285 13.88471687454569 0.04797832927211857
2168 2168 1 0 2.418419294277021 5.962790549627051 13.919371526428781
2169 2169 1 0 4.497553629482979 3.108561588023842 3.29093304027479
2170 2170 1 0 0.22627078274943432 2.2732555120344107 10.38350595717011
2171 2171 1 0 8.96038332390792 4.469874138871092 6.688389235624371
2172 2172 1 0 8.88011690773312 0.24731489227321315 7.388908127099466
2173 2173 1 0 8.108589127818398 2.4715748563164683 4.250516673628333
2174 2174 1 0 11.710109302334791 8.312849676728387 6.06959892881083
2175 2175 1 0 5.727600640371695 4.113063265192669 0.5714291404466628
2176 2176 1 0 1.1200682632835839 9.023965886687915 12.041283883886612
2177 2177 1 0 3.5682521916692784 2.5344983451581338 7.36068874189479
2178 2178 1 0 3.827394919450424 8.673103780274506 7.084997968515913
2179 2179 1 0 5.230679935886772 13.467709606477428 6.5230379708256265
2180 2180 1 0 10.717598566793265 2.606254262740173 4.646857197753442
2181 2181 1 0 3.306376312435113 4.961546050893724 8.915402675615253
2182 2182 1 0 1.8455847858679983 10.885403618841575 9.200673542806767
2183 2183 1 0 13.968155752074264 11.847801244459442 10.501392013021851
2184 2184 1 0 5.537866144522729 11.151037522068417 1.6944254741050164
2185 2185 1 0 2.7854915780554776 7.521583220553477 0.2546670625038706
2186 2186 1 0 1.9610908320916969 11.133772895725253 4.785895012638989
2187 2187 1 0 11.432382775793558 5.835288588103573 10.910214760407786
2188 2188 1 0 4.387201564868532 7.591599005826296 7.330104715876271
2189 2189 1 0 1.4512477561899666 0.2787566936905798 2.8345477172785305
2190 2190 1 0 5.159686643656737 12.454439099000238 5.974776285879805
2191 2191 1 0 1.078899538637739 4.574670955075423 3.7378915215202366
2192 2192 1 0 9.35413488154285 11.011078396980391 8.00832485926166
2193 2193 1 0 3.274803491142505 5.675007286511933 0.7786273853851003
2194 2194 1 0 5.1955319095082 2.929719004012355 3.1251863303540697
2195 2195 1 0 4.405280632054114 2.428834161969534 2.5343233837196304
2196 2196 1 0 10.139687925669682 9.756854385257418 0.8376939523307066
2197 2197 1 0 9.8359364518987 6.419762545483317 9.824509792497933
2198 2198 1 0 12.376932214301148 5.503168449693904 10.137235389616805
2199 2199 1 0 9.094575967680306 10.239388909392508 10.672564999975044
2200 2200 1 0 13.252079339780149 3.0515968386843806 8.317161849688457
2201 2201 1 0 5.668586227269188 9.175453604840495 11.019788789747441
2202 2202 1 0 7.393196529290029 4.83122256190166 9.412519815214223
2203 2203 1 0 1.32075426030738 11.671820830126638 9.79934990684195
2204 2204 1 0 6.378515071755505 7.156804156107258 11.61390286947347
2205 2205 1 0 12.962725775138944 6.67615685311358 13.410734686208553
2206 2206 1 0 6.369952336044596 4.35227401194181 2.183103470602535
2207 2207 1 0 10.934063368598332 8.279459082856144 12.095265125135816
2208 2208 1 0 9.903511529729752 5.03937726748934 1.1090282635438904
2209 2209 1 0 10.343557167076002 13.704205866556253 4.38305402363123
2210 2210 1 0 0.2215788333735629 1.3381196186357762 3.621505646743535
2211 2211 1 0 1.8187743457329655 0.9527782205431573 6.204733598530854
2212 2212 1 0 0.901887257623582 6.370022327079108 2.4361685564363724
2213 2213 1 0 1.7570546511408662 0.5745955865141101 3.7549693517631675
2214 2214 1 0 8.042293427800935 12.293163049499038 0.40041704751344676
2215 2215 1 0 5.1998274509932205 8.124146527370579 1.5550490921937412
2216 2216 1 0 10.181886185353827 7.655555229408779 8.812035501860995
2217 2217 1 0 7.111888643827295 10.456705231129792 0.839446893869883
2218 2218 1 0 2.396401738179653 12.362052472055847 10.455274816655782
2219 2219 1 0 1.1999965717222094 13.11611847005363 7.141805197509591
2220 2220 1 0 13.511774980218307 8.75227967907006 2.705587010206396
2221 2221 1 0 3.168967571879516 7.661802749118735 3.4671111877725096
2222 2222 1 0 10.753300731317642 13.336444169378654 1.8333184170826977
2223 2223 1 0 7.400640976485986 10.507931309699122 10.266568110958275
2224 2224 1 0 7.392445334864436 4.331545802440017 10.608226831164465
2225 2225 1 0 5.0520687431757665 2.1015952239040008 9.65190979937826
2226 2226 1 0 12.08831280331111 8.998352432336862 3.572415895283844
2227 2227 1 0 13.833156478501692 13.536840392894106 2.844103775072434
2228 2228 1 0 3.499589059793152 13.23552948191303 13.303895384390355
2229 2229 1 0 13.06568483941502 3.123005169689607 11.870789366046512
2230 2230 1 0 3.6529048232067853 9.982089886151462 2.5494696087751727
2231 2231 1 0 10.341692783119424 11.294528018795447 7.1681580668396565
2232 2232 1 0 10.503755636142255 5.147927464914632 5.33267491878238
2233 2233 1 0 0.4239470831162515 2.816187516989801 2.1077850928128155
2234 2234 1 0 6.983506829419052 5.261945099379712 7.365184468893602
2235 2235 1 0 4.359557573803231 0.577912811366344 5.190882265830484
2236 2236 1 0 0.3112681815537601 5.236147365590955 6.228484206194672
2237 2237 1 0 4.857835780117243 0.8263021047794645 1.9255353141517408
2238 2238 1 0 4.951715784359419 1.9744860209491921 5.8636433516717945
2239 2239 1 0 8.9910825912358 2.92099175844497 0.787953893287477
2240 2240 1 0 1.754743479859265 8.958595914337417 7.654543007838399
2241 2241 1 0 4.728236494372536 11.195460585950434 2.4594894537504364
2242 2242 1 0 7.196840012513922 1.1465371139585356 2.143541294842694
2243 2243 1 0 5.1978539288627035 2.8663963653911972 0.13431956570580822
2244 2244 1 0 4.842455346333765 3.049919298815817 5.074022186975431
2245 2245 1 0 12.328547756795729 2.879689212155229 0.06609264045267028
2246 2246 1 0 10.15426944837087 13.421278392185311 9.513782055565622
2247 2247 1 0 4.7499578166794745 2.263820972279358 12.020914783245425
2248 2248 1 0 3.338979675876882 5.744234349864038 8.103446816278923
2249 2249 1 0 8.750969691492596 13.322529132256568 0.24965315408025388
2250 2250 1 0 10.215981458071676 4.387436502613709 1.602428000122795
2251 2251 1 0 9.183445239685181 6.501295057247857 13.515833976341053
2252 2252 1 0 3.1753026804381825 0.7982287110589001 3.9401027802550304
2253 2253 1 0 0.6274112990943702 9.265959859267934 11.658338876841476
2254 2254 1 0 1.7397454866335542 7.727658178780864 7.050889326431256
2255 2255 1 0 9.759205344378776 3.330152744943111 3.2164708389735046
2256 2256 1 0 13.417453021716206 9.420378274983984 2.291777787194137
2257 2257 1 0 6.862406140217178 10.332153371869683 3.005895204854505
2258 2258 1 0 7.061072039475804 4.679945366855952 8.029252765001408
2259 2259 1 0 8.555849820218791 10.851552270416356 11.73098254090876
2260 2260 1 0 9.370670286704277 10.026699308139383 12.932617310606089
2261 2261 1 0 11.574653094537771 12.856917865976511 11.398200692930972
2262 2262 1 0 13.348588420170948 11.807868218495228 4.267489750866545
2263 2263 1 0 13.886883907079723 8.918411413964476 9.49474589467449
2264 2264 1 0 7.8074893820588045 4.4086507204384295 2.8861254362880575
2265 2265 1 0 9.790853988934177 1.5017846330151665 5.443157228005834
2266 2266 1 0 2.8486627045643553 7.4381215624366135 2.1270884743421847
2267 2267 1 0 8.294309770909475 8.009698877816003 13.27490285315714
2268 2268 1 0 11.673019394864276 8.82255583835538 12.567590400015067
2269 2269 1 0 10.527396446888401 8.58445302899203 11.777794687393751
2270 2270 1 0 2.3158069561134313 2.340801116521831 6.237898404338349
2271 2271 1 0 10.788322008827775 13.216473096203632 0.5483713685518591
2272 2272 1 0 2.6998020471381463 9.1361540696954 1.402187155561176
2273 2273 1 0 2.1829550671381592 0.874171830284174 7.72689086520477
2274 2274 1 0 2.0439425851813233 7.889721679507461 4.085200189827487
2275 2275 1 0 13.713832593579069 2.69183977490548 2.629606864081756
2276 2276 1 0 5.424137065674642 10.313948825208174 14.0400757541743
2277 2277 1 0 6.184980941970223 3.177825286032792 5.249243411818665
2278 2278 1 0 5.839150586536184 4.444779660177783 2.452344814344261
2279 2279 1 0 10.4704132892258 0.22932269082367854 2.0343362963909426
2280 2280 1 0 12.251663029139557 12.540922207938703 9.986406145927791
2281 2281 1 0 11.249828150266135 10.765304620409962 13.766543051752372
2282 2282 1 0 0.47178040261610543 11.46896399768109 9.850472357836514
2283 2283 1 0 9.353743501519677 3.4043881285710818 7.02120264203507
2284 2284 1 0 7.924876576362158 3.8080818554065163 9.687796868142918
2285 2285 1 0 11.911385128765204 0.39373723409289335 5.8197755515844305
2286 2286 1 0 9.443514093502808 13.1861632727458 0.710802570000478
2287 2287 1 0 7.94001772318696 4.466184188019002 7.776664373127286
2288 2288 1 0 10.775616134127574 6.1602778702653085 4.908006156200569
2289 2289 1 0 6.8584238672336895 6.0726288425054875 10.098497349666673
2290 2290 1 0 5.420723442141485 12.927007530689746 11.491446505191384
2291 2291 1 0 0.6408028154625174 1.1605254150741848 9.450184638808473
2292 2292 1 0 3.279480267228838 13.696700524253728 9.611362683320479
2293 2293 1 0 1.5735568856318995 3.785232082416879 3.7925317693512572
2294 2294 1 0 8.128289726424734 4.582452000354929 2.97449759834465
2295 2295 1 0 7.492623131306806 0.6885813880539347 3.8701336040722403
2296 2296 1 0 9.871155537125928 13.969786836951382 3.411431002064313
2297 2297 1 0 6.707035258957296 7.3513327158758095 5.567446109393058
2298 2298 1 0 9.006772192760993 5.05460675864381 13.747137563579594
2299 2299 1 0 5.4930243412141895 7.783550415362938 2.3731216877061803
2300 2300 1 0 1.2045653618296714 1.243859612529058 4.190099771988083
2301 2301 1 0 11.067335730420252 5.455762849003074 10.934024251011458
2302 2302 1 0 10.298968130792847 6.889309995530534 9.69592057337357
2303 2303 1 0 6.198690797261015 3.141030779144458 8.021533395594936
2304 2304 1 0 9.291675971844906 12.45340882814864 10.535019162154445
2305 2305 1 0 10.943543929510184 13.96391784172212 4.412097044035042
2306 2306 1 0 1.021449038067454 3.9497883015194417 13.280253657941302
2307 2307 1 0 13.594073289404065 9.949325649560246 9.899218032655133
2308 2308 1 0 4.850888729517036 0.03961448815244593 12.516595719915378
2309 2309 1 0 10.712023520867438 11.450058570019594 3.734263462562586
2310 2310 1 0 9.118997534420846 11.129546838385425 1.7202647103127562
2311 2311 1 0 3.2447047718927813 13.926384070189044 10.422037833746906
2312 2312 1 0 3.750492304292261 8.336962066141982 4.50553823284264
2313 2313 1 0 2.534758060951281 6.750087350913788 7.997438808013256
2314 2314 1 0 13.352268380989122 1.4038267145283871 13.893870589942939
2315 2315 1 0 12.549895762977794 9.9268954524182 12.151669663090134
2316 2316 1 0 6.407542074310153 10.710194836835628 7.395789996221334
2317 2317 1 0 12.095650923779539 3.079733290517124 6.628884715382621
2318 2318 1 0 0.2503770595952781 11.976887792212633 0.05294290525418888
2319 2319 1 0 13.703007403562268 5.435562966106597 0.517791259284956
2320 2320 1 0 13.208696547109438 12.215988510967671 11.571468327861151
2321 2321 1 0 13.999622474247253 2.8779833297095005 12.837996457116478
2322 2322 1 0 11.956861864883086 4.761973032638141 1.964806487141904
2323 2323 1 0 13.5589510269728 8.77073629410195 12.681343518700848
2324 2324 1 0 13.765044763825488 5.225748561828292 5.9991003663661635
2325 2325 1 0 6.883970059450615 5.903350513356989 6.539121558893531
2326 2326 1 0 11.959112668193828 13.788369998271774 8.666365014197217
2327 2327 1 0 13.384049787786521 5.671195837531769 2.429325841372744
2328 2328 1 0 4.525223770156416 9.261114465279302 8.785051050498815
2329 2329 1 0 11.92417831180656 13.249842074572728 13.447935234293691
2330 2330 1 0 6.011635936095277 13.410083046523546 2.0013425940579452
2331 2331 1 0 12.26962345718177 5.572383071871392 13.270065443883013
2332 2332 1 0 4.533975908248623 0.6071169926515357 7.000005151826853
2333 2333 1 0 0.9705544531412287 3.1012691337026124 8.60987845569043
2334 2334 1 0 3.166337893415236 7.622700616969421 6.315160406356623
2335 2335 1 0 3.0867735071134104 9.669541973901424 5.687025966331853
2336 2336 1 0 0.5827023973866311 0.051029359468433046 4.185027122597535
2337 2337 1 0 6.104857173161329 6.917686195387968 7.1838071887157895
2338 2338 1 0 9.203850402393686 10.731737632097124 0.110546138123084
2339 2339 1 0 7.452400385462125 4.441724025904877 0.5213814014532172
2340 2340 1 0 4.5636794293388085 12.855918294822082 13.063242123173072
2341 2341 1 0 9.882262510219693 3.588981761641414 4.726351111536552
2342 2342 1 0 3.383402084134617 12.906727642990973 5.993216701534822
2343 2343 1 0 5.8909414117384005 11.59828377449499 0.07846818097899293
2344 2344 1 0 9.87029252122575 9.561606706441399 7.083670694769656
2345 2345 1 0 7.0925122741998585 1.4496405959004455 5.981338435374867
2346 2346 1 0 13.23903353187038 7.705289846911761 0.09390891364294184
2347 2347 1 0 1.9046233777654382 9.327950973481363 0.3862655399496667
2348 2348 1 0 7.031334392863438 9.572020571302463 9.892151776462944
2349 2349 1 0 12.135743693053842 11.198750803776287 6.722721031606324
2350 2350 1 0 0.5812394489504549 8.4360426460415 5.253017139109191
2351 2351 1 0 4.8083290593033805 13.23905743536423 3.0868697366043367
2352 2352 1 0 6.1536591830721585 1.610283644706466 6.9436119906418785
2353 2353 1 0 1.5252323998441213 6.060599442718077 9.75906486391441
2354 2354 1 0 3.5340918414324514 3.511596470895415 9.78943994723838
2355 2355 1 0 1.9162835521667725 0.01210734542825186 12.669364928725875
2356 2356 1 0 7.9637399834622205 6.54544666415111 6.52653726301081
2357 2357 1 0 6.051568756292092 3.6787403080789995 11.512622091056128
2358 2358 1 0 13.584018474007019 0.9013659561727568 8.602861520874278
2359 2359 1 0 3.048840321627571 11.411193455042122 11.954061556558276
2360 2360 1 0 12.220518105579277 8.95469349303294 9.739102341891645
2361 2361 1 0 11.395308637222167 3.1523209324917563 12.021994588874772
2362 2362 1 0 11.412833197830041 2.5689192508312275 4.402911874114433
2363 2363 1 0 6.489186453502043 13.311643536737682 3.806292354332025
2364 2364 1 0 12.539972864540156 9.40101853700334 13.804794503116696
2365 2365 1 0 7.317989890950991 9.219750684226142 12.667306383360554
2366 2366 1 0 2.8504749162117484 11.853599783271903 4.446133513046312
2367 2367 1 0 9.560266236623292 1.8018871502714706 13.154619353380644
2368 2368 1 0 8.944703033513072 12.376466681615105 2.29206025855654
2369 2369 1 0 4.761947137985828 9.330576963877412 9.621275445125555
2370 2370 1 0 10.718079023578275 1.2110793426357036 7.53144005422504
2371 2371 1 0 4.770269084102289 7.046674237203281 0.15569122071770658
2372 2372 1 0 6.029912385137353 7.9218933844106365 13.803229016526393
2373 2373 1 0 11.701105642654978 10.52561287049846 5.846160396153271
2374 2374 1 0 1.332864406963555 14.053128254736887 0.9442641145792978
2375 2375 1 0 12.950173529332586 9.372947689159387 0.218674744392473
2376 2376 1 0 0.07456044840327884 4.854026345703033 0.6793241993918839
2377 2377 1 0 6.642026536657656 1.1942812950630375 3.1011973009903664
2378 2378 1 0 3.922637515980668 2.9678626856271304 6.533287006929688
2379 2379 1 0 0.7629470931024411 1.7978465894697448 13.335397870795003
2380 2380 1 0 1.9313161139882873 6.821964058893199 13.307037512532684
2381 2381 1 0 2.1370258073063066 7.586999243058904 1.6768337206137893
2382 2382 1 0 12.104323455559229 0.4450620989007011 5.354989102933882
2383 2383 1 0 3.8936253465141055 8.173928077094285 10.996955395655416
2384 2384 1 0 0.8160581141217146 0.32169108976769867 10.875312119439831
2385 2385 1 0 2.626348204575854 6.944382075636911 3.367293549233774
2386 2386 1 0 11.842791214357728 7.659908288596937 4.27930346929947
2387 2387 1 0 8.360489273814544 7.61256848899674 7.004496973485073
2388 2388 1 0 10.740896005391646 9.987011856284779 13.269531045730151
2389 2389 1 0 2.1501662326456925 7.252477784708615 2.147462116246464
2390 2390 1 0 9.997727999728042 2.3275792500984283 2.371656034161348
2391 2391 1 0 3.8413199114232253 8.826505050027079 11.481061268897909
2392 2392 1 0 12.76797453413068 6.607280165720592 0.7178591867040637
2393 2393 1 0 11.06600944427925 13.603396442978903 11.187465966755665
2394 2394 1 0 7.101729999780605 8.878916743841085 10.744768625483438
2395 2395 1 0 10.607476065420272 7.1456823159507765 2.8119974658521363
2396 2396 1 0 6.091112604385116 10.83449624092653 9.823160438132563
2397 2397 1 0 11.143338272233336 13.642986293330141 10.704782958025614
2398 2398 1 0 1.2741495763172679 4.798398305096794 5.916381823396941
2399 2399 1 0 11.653798684435662 9.251978729733615 10.431368546166222
2400 2400 1 0 6.624777236724481 1.081017276428701 5.747808807473572
2401 2401 1 0 5.539153273354468 11.704559717356267 8.864338753361475
2402 2402 1 0 5.562557216867913 2.2739717023400914 8.626226071999143
2403 2403 1 0 11.130114100692579 12.075353001982815 7.65649909291202
2404 2404 1 0 0.8668887295165207 5.001236820528347 4.1187494161735465
2405 2405 1 0 7.502344017022564 5.356210438772768 4.724884344518317
2406 2406 1 0 7.643004607274176 10.308787433435612 8.3138798103766
2407 2407 1 0 2.11993320333952 1.6244418168396626 3.733402649467341
2408 2408 1 0 2.2163845147658625 10.315589291772396 13.240434165184576
2409 2409 1 0 13.014035108786727 7.807101067703982 7.297082704830993
2410 2410 1 0 12.964536566626718 3.8891363902874985 6.441735759511213
2411 2411 1 0 7.750124379742063 6.600402441686339 10.377876436664355
2412 2412 1 0 2.4277245144697654 9.361385013119287 6.992241395242834
2413 2413 1 0 6.9472492898901255 8.73690712781485 8.206337758043249
2414 2414 1 0 6.691260680579923 8.061708430706119 2.0496758287953223
2415 2415 1 0 12.353418789009748 8.958018174633887 2.2019353998687157
2416 2416 1 0 11.042658018279129 5.853841811987655 11.411044122626931
2417 2417 1 0 4.24397444161471 8.512521144008288 9.060131609548188
2418 2418 1 0 1.3043914367207705 7.343715913718052 12.205781787623287
2419 2419 1 0 6.6756591761166675 10.9586801320113 13.497580652172724
2420 2420 1 0 10.81897519310192 10.322885416000409 1.837319007180696
2421 2421 1 0 0.005318416461398473 12.56300223320788 9.485558746299063
2422 2422 1 0 13.209304821214094 13.944054952421173 6.901346452108011
2423 2423 1 0 5.663330715999965 13.1776791127727 10.302420411390083
2424 2424 1 0 1.46716024854563 11.160479634651299 4.947165901088888
2425 2425 1 0 1.302949087263799 1.6999349909483392 13.662190304154759
2426 2426 1 0 12.999250447445649 10.336151792121086 2.5802841244593324
2427 2427 1 0 2.201480912064517 12.674289144604591 10.676897245946428
2428 2428 1 0 3.6730024126944896 0.4501764406052548 12.99783054011078
2429 2429 1 0 0.6033952080189502 3.57515385769304 1.415169128488947
2430 2430 1 0 12.929244470509094 5.594240416516256 5.068162243678401
2431 2431 1 0 11.778053843383557 11.490352273529947 10.440256387368489
2432 2432 1 0 3.5312907766280306 10.545599864464988 13.182219896582975
2433 2433 1 0 10.347154203973124 0.8396071686467105 7.42579902855143
2434 2434 1 0 9.333097282794947 5.999885093828105 2.0148562637725083
2435 2435 1 0 0.36800980902653196 1.3533200318902472 11.503522678389162
2436 2436 1 0 5.406755182323247 12.028224832030213 4.80917778925976
2437 2437 1 0 6.832683784296722 9.946724532212109 3.11667474665997
2438 2438 1 0 2.953424035362009 13.827033287982276 6.438223913267048
2439 2439 1 0 2.435503539574964 3.9017101209757463 1.4610320853709275
2440 2440 1 0 5.932721015519147 8.07673633249355 10.00286900190916
2441 2441 1 0 9.32458818333178 1.1075062651480367 1.0475250998840362
2442 2442 1 0 7.662739408803702 10.942634597465423 2.052235096485465
2443 2443 1 0 2.007777451897469 7.957462635071063 9.884101805863018
2444 2444 1 0 0.5146233853701558 10.657519915708297 2.088637277032583
2445 2445 1 0 1.5107432852946154 9.444667277683257 5.3478190147043385
2446 2446 1 0 7.825030122835417 7.952566918555099 1.9312508557436425
2447 2447 1 0 11.845078954194696 4.4896589440746055 12.641132269099316
2448 2448 1 0 6.138214048599148 2.499581201538128 2.5090626601909536
2449 2449 1 0 12.209494297067383 3.4806242875336166 3.3537033803808574
2450 2450 1 0 7.8852157730323365 11.630507398012712 10.68645053848891
2451 2451 1 0 9.984927876383313 0.9677429894434565 0.23072923347834642
2452 2452 1 0 13.119102009734842 11.18033516728162 0.5280549107634973
2453 2453 1 0 3.546000853227113 10.551648634278564 0.4107207612408432
2454 2454 1 0 1.1166707903296451 4.669791869388771 11.825639964243619
2455 2455 1 0 9.101964590675678 2.7464078915865358 4.484150834505562
2456 2456 1 0 7.108695457246575 12.293342986763477 6.4499425511343444
2457 2457 1 0 13.369435594206406 4.635035097013806 11.024632260773414
2458 2458 1 0 5.842861868541848 6.630504279235428 8.941842559819584
2459 2459 1 0 9.94366405895205 0.20657370141478132 6.058017377265794
2460 2460 1 0 5.520737030990776 4.370454558358306 4.320326402912726
2461 2461 1 0 7.328514243731901 0.6764004250438508 8.852978976249581
2462 2462 1 0 6.199914347008431 1.5745292181083108 7.28946276118132
2463 2463 1 0 12.515068312635035 9.769078263770016 11.693669034183877
2464 2464 1 0 5.86609161122977 6.840296961813703 0.8035536872814607
2465 2465 1 0 7.133110406189006 12.077658905684494 1.9688545487727311
2466 2466 1 0 3.3699487581382432 0.9869358000449285 13.504090914836295
2467 2467 1 0 0.9022867355294921 10.364707655252317 9.398947301584743
2468 2468 1 0 7.199531772035388 0.8753104760248552 4.704248314380872
2469 2469 1 0 10.763481699265817 4.419641420431102 1.3184429152238246
2470 2470 1 0 6.378688390239158 14.040504754217391 5.660086864343695
2471 2471 1 0 1.7812058828468382 6.59140892571805 3.3225035047367744
2472 2472 1 0 5.803063556642865 10.206399552963784 12.932505743271852
2473 2473 1 0 1.6800012026048137 11.21304259224477 6.982813849821765
2474 2474 1 0 8.322261605570981 12.23192405793181 12.572185815334741
2475 2475 1 0 6.4869005476717 0.6602487194224607 11.116475329018797
2476 2476 1 0 1.560644284813789 13.264683814131418 10.67326949850443
2477 2477 1 0 3.465647440071883 0.060374789215838186 7.62232128071254
2478 2478 1 0 3.397657919263145 6.485731269361187 10.312336703992546
2479 2479 1 0 0.8209725512877823 6.553064460495181 0.1669905961413485
2480 2480 1 0 9.12884285034205 3.385467285114375 10.764390298833362
2481 2481 1 0 13.19796927545161 5.563679394819722 1.1162222413722434
2482 2482 1 0 4.420176458108721 11.958338583512676 7.039747904790955
2483 2483 1 0 5.539179727762466 4.027806123771136 0.776222726338531
2484 2484 1 0 1.541830531764474 10.532277739354026 10.858514070321345
2485 2485 1 0 2.513659496773597 10.06583493404298 5.797052746037166
2486 2486 1 0 7.317248852078029 6.0702538250125615 12.856939075350702
2487 2487 1 0 14.053539718612708 0.5336761597562913 3.647089490840234
2488 2488 1 0 2.8802736597383936 10.232421761401124 2.164744042575693
2489 2489 1 0 10.261595998289293 1.1824680035096733 8.176814696806172
2490 2490 1 0 6.765243622420002 5.656847104184343 6.151805819314665
2491 2491 1 0 11.506771929679688 7.797394090683646 12.85555302156505
2492 2492 1 0 13.391602128653785 13.261150399996238 6.94797443512665
2493 2493 1 0 4.840067731363851 1.1232594935623685 12.625440048456273
2494 2494 1 0 10.065919682049676 4.628609679503391 5.894041167305687
2495 2495 1 0 1.6100588217034995 5.985426518077534 10.318888694361531
2496 2496 1 0 5.800624408553774 9.70146629134381 12.196089925991062
2497 2497 1 0 4.210667590148418 10.59215688465564 11.48822473744085
2498 2498 1 0 4.957890163527373 5.37854759114327 9.84538713525891
2499 2499 1 0 0.5490419773363289 4.886595697980113 5.35601506990951
2500 2500 1 0 9.906243066204947 10.557411994497558 13.80003444649303
2501 2501 1 0 6.579195625184337 11.3388419742102 0.636465859948911
2502 2502 1 0 5.875070055084089 1.6920796745165514 12.529545018609577
2503 2503 1 0 12.564363671680802 0.1687432159072496 2.491826650764464
2504 2504 1 0 10.779550302758084 0.5778112505111643 1.8652368530658887
2505 2505 1 0 9.20908077719508 12.064965659175007 10.937601881032656
2506 2506 1 0 9.438890834847417 1.6347729948968208 4.790234402819344
2507 2507 1 0 6.554391141512822 0.8225733324166096 5.371651948802017
2508 2508 1 0 12.673076376996034 3.0760727065583424 3.0301017049153596
2509 2509 1 0 0.26338134103042965 11.926815348011571 13.919483071353163
2510 2510 1 0 0.36392953375672077 3.879602692339116 4.228307493726896
2511 2511 1 0 1.9393805490714688 0.602479123195088 6.439141031063627
2512 2512 1 0 1.8840067492714054 10.559058569668533 12.719944624331324
2513 2513 1 0 7.92449168137655 2.7007233655166605 3.151633172734287
2514 2514 1 0 13.626628246450494 7.687077156675753 11.749176005350153
2515 2515 1 0 8.988776578487972 10.440715852562116 12.057416758214657
2516 2516 1 0 5.4541890359504634 13.58037162317644 1.0669117414291636
2517 2517 1 0 3.4743664299718415 8.341889520750824 12.359386402827445
2518 2518 1 0 1.0059928177581803 12.794965517760742 1.1939695173075726
2519 2519 1 0 0.9086594974123383 5.42386634523518 9.647802478781331
2520 2520 1 0 9.656240335392827 13.552007308508237 10.482773356113078
2521 2521 1 0 1.1961600657865916 10.107103086475071 12.734774895595875
2522 2522 1 0 7.872888239705797 14.039601106515228 8.333325081860451
2523 2523 1 0 8.056680584601486 2.689895639813851 1.0506482097193421
2524 2524 1 0 4.283110785205999 6.881978393150937 11.350895529265072
2525 2525 1 0 8.36661378016231 2.6294450741651536 9.811635310690688
2526 2526 1 0 10.28331108124608 5.122881953655102 2.997035152975031
2527 2527 1 0 13.283473798204174 7.5411585352425545 12.75743321341064
2528 2528 1 0 11.028989664199589 4.603850414333953 13.61723188389679
2529 2529 1 0 0.2440457530851639 11.892510216912504 7.317475093874558
2530 2530 1 0 13.008006603003007 0.08990264708492132 2.5149030679018374
2531 2531 1 0 2.869547129701458 11.703738708482728 8.349167120100837
2532 2532 1 0 11.114143573400824 13.38926784433828 4.815162680876911
2533 2533 1 0 7.4120147951831274 2.3555035651566256 10.272148188606128
2534 2534 1 0 2.237217886049882 5.359450365987894 4.001393358853074
2535 2535 1 0 10.138516643167614 5.371720008488941 6.072515052236693
2536 2536 1 0 11.477930621012527 2.578103161995305 6.299925556595818
2537 2537 1 0 6.769259870291675 13.628480328778643 12.636565509339423
2538 2538 1 0 10.184473459693496 1.3098471076783624 6.381114503903666
2539 2539 1 0 6.743214936525616 11.794149308728876 5.26111947451252
2540 2540 1 0 1.7266434677765181 6.297820253228539 13.528609463968548
2541 2541 1 0 0.8173272095501518 9.321884796884156 4.279878196816721
2542 2542 1 0 4.204921338280507 4.226587205994855 12.775358786915007
2543 2543 1 0 4.098107097111371 1.8331087141433933 5.03827427698474
2544 2544 1 0 9.348906576557056 3.278510911269654 9.186133261423082
2545 2545 1 0 2.4159685279510774 3.505303251375237 9.474690249205416
2546 2546 1 0 2.8014366990030197 13.106882462612631 8.888352681856281
2547 2547 1 0 11.958061645763069 10.314648548554553 11.327251416055944
2548 2548 1 0 10.72347144082806 9.754527183424377 10.296480682938753
2549 2549 1 0 5.304968662113213 2.4425450973179688 4.084627718956094
2550 2550 1 0 11.855858535232361 1.8495772090908627 2.726934072528978
2551 2551 1 0 1.9138074998821635 7.648559077871302 7.09644168547347
2552 2552 1 0 6.123534506153841 7.234048315433325 11.745611128060768
2553 2553 1 0 6.589748643315014 13.355303371163442 0.8531215215224665
2554 2554 1 0 12.791771182599637 10.977422654021076 5.327665014025514
2555 2555 1 0 9.642317865326032 3.6567394227693035 3.712152253814968
2556 2556 1 0 3.9577372014801244 8.413303457628288 12.1834481390852
2557 2557 1 0 6.8321515787425415 12.481367246324986 4.856440624738039
2558 2558 1 0 1.4781216483105108 0.42917605371463957 9.729671247792291
2559 2559 1 0 9.258297603714357 12.969676521159977 5.886693149287176
2560 2560 1 0 2.6212949094423696 2.709504393066075 7.40120626968221
2561 2561 1 0 4.134016738145287 5.162722068690472 11.588754036117793
2562 2562 1 0 6.751451459330445 8.928252771969307 13.679800740599163
2563 2563 1 0 13.453872692480024 0.08141099259841508 2.6225612188776815
2564 2564 1 0 5.06843775054011 11.951789788299727 3.792916369800534
2565 2565 1 0 1.3126275754567216 13.735556343832513 8.452172422556414
2566 2566 1 0 4.989041239453214 7.234469618578971 7.759188808677249
2567 2567 1 0 13.562433932854654 10.506303893620816 5.7051327242283705
2568 2568 1 0 4.417588111696546 6.945063230954109 3.7296417818957264
2569 2569 1 0 10.259636682590966 5.182838075424378 10.179353036277957
2570 2570 1 0 13.127546877368513 11.783532823511186 0.6239543174559987
2571 2571 1 0 3.054940501380482 0.35308115319277833 11.493898142025893
2572 2572 1 0 4.781820344634771 11.438668835241975 5.805095084912237
2573 2573 1 0 4.453745171958012 11.753306329521662 5.186392388091871
2574 2574 1 0 2.4430106545518955 4.46852007388617 7.443574130115611
2575 2575 1 0 5.4589131103393695 3.9611096365572513 4.1495892406400605
2576 2576 1 0 9.452265607755686 0.4798501801738759 5.732583022765738
2577 2577 1 0 10.217752201621915 6.398704603789073 4.710652087805785
2578 2578 1 0 7.38157425387471 12.936156429729852 1.0145905468697227
2579 2579 1 0 6.965366381794778 3.309878651845528 2.4103091063896254
2580 2580 1 0 6.655583267200874 6.043405346783724 13.091559528835882
2581 2581 1 0 2.922394399503756 8.617737720795542 6.91641755417574
2582 2582 1 0 1.2092133374143115 2.557774192307385 11.09914296118222
2583 2583 1 0 0.6955064867705553 5.148160841879429 12.84840434672399
2584 2584 1 0 3.554036388283773 6.618641163687601 0.15480702892301842
2585 2585 1 0 2.6077980537777434 5.690656408226783 9.44362108031525
2586 2586 1 0 5.216898353916359 6.127603628440379 11.919913906340831
2587 2587 1 0 14.060607838072803 9.884393753471377 12.061426008633726
2588 2588 1 0 7.282560395606212 12.172183191949127 3.5524512371812937
2589 2589 1 0 6.905319443093628 9.745361743997599 4.02762254272098
2590 2590 1 0 13.622323002729372 2.324955094805656 10.22737118742353
2591 2591 1 0 12.810183343872895 9.413717074076065 10.354494206082109
2592 2592 1 0 9.55709277483944 2.465184094801501 3.167595187475299
2593 2593 1 0 3.889444475116717 9.638825557117116 10.096365163420328
2594 2594 1 0 5.6771256161839805 8.745564447465561 10.62040049938428
2595 2595 1 0 7.012744768558767 11.372938557479605 0.26010720060473946
2596 2596 1 0 8.772333225440859 5.239092937913333 13.83178407929446
2597 2597 1 0 9.171878578236889 5.99178740474141 3.334738029792434
2598 2598 1 0 4.860940219562939 7.365884376212085 14.062954024080916
2599 2599 1 0 8.383186751144807 10.106585161873097 12.14454079704058
2600 2600 1 0 0.17251573079972335 4.733334421197534 6.454259942341664
2601 2601 1 0 6.563431980818577 4.1972119842840385 6.363702586127033
2602 2602 1 0 0.6827784332404399 0.4508446005334919 3.474652962779491
2603 2603 1 0 11.21758498707382 0.7449953846723347 1.554298024099744
2604 2604 1 0 8.617027207571988 6.2632540853795335 10.794341617299603
2605 2605 1 0 13.381667886072455 8.387196924744732 11.831026208563683
2606 2606 1 0 13.502249216950602 2.8589208110430055 6.746095880611489
2607 2607 1 0 12.337988689332434 0.07632446670869335 5.7665940182410305
2608 2608 1 0 0.9261389361884468 2.2335385881576264 3.3749905330070216
2609 2609 1 0 8.453260403322266 5.205642481079713 3.6917829858444917
2610 2610 1 0 8.052474579996451 5.702465820819623 4.556767656327106
2611 2611 1 0 6.645266650828266 4.558020835433826 9.102783595989024
2612 2612 1 0 7.389242566499282 12.244359999920501 9.766864809359276
2613 2613 1 0 4.615873391272031 2.2508392631760317 10.346871846584396
2614 2614 1 0 8.357601403046568 4.262327499046041 8.844962126202251
2615 2615 1 0 2.6386395386996355 4.667405984608645 9.33758530089252
2616 2616 1 0 13.701033135331253 13.807168241980962 9.768415515230732
2617 2617 1 0 8.743176283875371 4.522833129395494 7.7027102567803345
2618 2618 1 0 6.883268651621829 6.70139819748645 9.537456059381846
2619 2619 1 0 8.787196765042852 11.596027381899578 6.181194524326191
2620 2620 1 0 11.504072906194251 5.101920516209617 1.3905960634400287
2621 2621 1 0 2.856778271371572 3.786679958123421 10.962941330431912
2622 2622 1 0 11.60062912137626 1.810196408108174 12.522750149562908
2623 2623 1 0 9.37428867081735 8.216193622880086 6.5887076585866895
2624 2624 1 0 4.911844159986266 8.01866895752004 0.37917514070509073
2625 2625 1 0 5.43473783215523 13.21228970412518 9.779417676245938
2626 2626 1 0 14.049950671041788 3.654852926128205 12.972232155961587
2627 2627 1 0 4.104950906144057 7.924787252613065 3.6884191123825056
2628 2628 1 0 13.244080642688477 11.86547302289995 2.016104931409179
2629 2629 1 0 13.925696956275702 1.7888153591168712 8.66176075359896
2630 2630 1 0 8.469857138114218 10.832135282556287 11.805657355787098
2631 2631 1 0 9.068990898145422 0.9981992040252655 13.867945434790318
2632 2632 1 0 5.159897140763919 1.8188459283755325 2.544996377081112
2633 2633 1 0 0.8418553889075662 8.921014074069104 6.449677346933809
2634 2634 1 0 13.224155973396178 10.853084248970573 0.5263108704669675
2635 2635 1 0 7.999204254904259 0.15787586298118855 3.7788050048485076
2636 2636 1 0 4.170414169354197 12.67334887583773 13.130319117463543
2637 2637 1 0 7.116649538082416 8.50572759510556 13.53901274476327
2638 2638 1 0 3.6790052460272054 3.9740713497810063 8.056651199697638
2639 2639 1 0 0.24722607650569098 0.08042504820242362 5.690108652743931
2640 2640 1 0 7.419880082477112 10.059061592097004 1.6844625593596536
2641 2641 1 0 6.18635152612421 5.836787616521999 13.109993486052337
2642 2642 1 0 3.5844095130009483 3.3196734024239176 4.197054557466301
2643 2643 1 0 5.727321956757602 5.105764452888754 11.036615777013283
2644 2644 1 0 10.496875253877949 13.177741277583145 12.850822192971181
2645 2645 1 0 9.874887583374727 11.252998571308954 12.745176715071343
2646 2646 1 0 6.61196891016096 4.511607328549434 13.255770244863497
2647 2647 1 0 2.645691442292608 9.683050945771168 12.516079806806678
2648 2648 1 0 6.650421927228753 4.268533119215595 7.640496426793472
2649 2649 1 0 10.075842415781386 0.36168582237115104 12.874331249929593
2650 2650 1 0 10.867914988838045 4.071369193243254 7.785642071633676
2651 2651 1 0 11.096735317884589 4.548533126082264 4.273287155236518
2652 2652 1 0 13.44730844635704 3.7807594703196563 6.544757936727988
2653 2653 1 0 9.661449177417618 13.255423487073749 13.861066768467149
2654 2654 1 0 12.673220319801068 0.39335790111360547 4.862364811737564
2655 2655 1 0 1.037999194595776 3.5296909209399634 8.972405354906446
2656 2656 1 0 2.7250424475010377 0.7051011380846214 10.890569562198463
2657 2657 1 0 1.3550805445556655 5.0255570241921586 2.894163842635687
2658 2658 1 0 11.03149103266601 11.837908365628673 2.62809445178246
2659 2659 1 0 6.366717797972692 1.4142553726117295 2.0974075576491025
2660 2660 1 0 4.2233009472491405 3.422115161970814 7.574364136613248
2661 2661 1 0 1.9410462841779481 4.792257341736114 12.506541551362968
2662 2662 1 0 7.643944981007592 10.328231541441319 6.8854835755738035
2663 2663 1 0 3.797368301383259 2.1350279176324856 12.881184131157312
2664 2664 1 0 4.178663106379392 3.9984069748270374 10.87723590692246
2665 2665 1 0 8.685785628670427 5.249729689672808 7.406348891613898
2666 2666 1 0 4.613596843029436 13.48933367239372 12.707665628536564
2667 2667 1 0 8.254889626553355 7.886774952976413 4.890565900143987
2668 2668 1 0 13.419264181805152 2.959813623051047 7.398562372426263
2669 2669 1 0 2.6948607204117594 11.181423035702391 10.639636715619435
2670 2670 1 0 10.959902992632847 3.024404340190944 11.914358936096326
2671 2671 1 0 2.2515514231342593 9.226786203055015 10.546982944046682
2672 2672 1 0 12.96063810478376 1.5072812166037333 5.817338647806163
2673 2673 1 0 3.6186360389780856 1.8242987949455818 0.5104928168569383
2674 2674 1 0 10.09951303909299 11.008832649926982 2.824552081472209
2675 2675 1 0 5.184634731499448 2.866221787267593 11.553916763562208
2676 2676 1 0 11.826895295802903 9.729961533612359 1.0095184880741435
2677 2677 1 0 6.977998628017554 12.987993367806057 0.6083539731481152
2678 2678 1 0 7.623150176433073 9.498458080702953 3.001611608694365
2679 2679 1 0 9.469590781285607 0.22230126447164913 14.033611204552852
2680 2680 1 0 13.410738419487673 7.458334965422051 4.999662163438606
2681 2681 1 0 0.8404589021224609 4.0922660842246446 11.046575537906442
2682 2682 1 0 6.823233121182093 11.848849795168805 9.748115438907616
2683 2683 1 0 8.404444661370512 3.0091628282335745 0.2522468976259659
2684 2684 1 0 6.428900153047747 1.8060485960215455 0.16389587869025138
2685 2685 1 0 11.740997324984475 2.2009573048042306 12.664545790911744
2686 2686 1 0 0.646274238676508 4.347045278785213 3.028851524314373
2687 2687 1 0 7.398177398039818 10.040681203794106 12.652101953442777
2688 2688 1 0 8.239221580612742 9.898253586017141 11.393626123349486
2689 2689 1 0 2.936717624882228 11.32920676180256 5.281469016370813
2690 2690 1 0 4.141073402803743 3.2925406318721278 12.688338442798186
2691 2691 1 0 6.6159221159618555 10.049125022936739 4.778193852237499
2692 2692 1 0 0.6212948158371009 0.3711075368792367 1.2376160541929073
2693 2693 1 0 7.660940281460528 2.66865480700596 5.240017800330645
2694 2694 1 0 12.081703998631522 6.177483771577092 0.10966902975249943
2695 2695 1 0 3.604100412566623 0.7758988654090472 5.300483321262153
2696 2696 1 0 11.072411155799584 1.40452696448182 9.36470210650634
2697 2697 1 0 3.1237818601313405 5.026882256602297 7.740875789870368
2698 2698 1 0 1.562843249139538 2.9167380361709982 1.627706212478803
2699 2699 1 0 13.532298259306751 4.9793660304522644 12.385214612417096
2700 2700 1 0 13.84244483798912 0.6474026728329653 11.288141882282952
2701 2701 1 0 8.007422043283452 10.434540334442534 0.6461324104949945
2702 2702 1 0 0.706897525776418 12.72213402762333 12.487907955801719
2703 2703 1 0 4.644687969167978 9.444750691442499 2.1253208452680052
2704 2704 1 0 9.952967595226353 6.178629300202668 5.302212149505917
2705 2705 1 0 14.035147765527118 7.1056414090673705 12.661753988348288
2706 2706 1 0 5.118962743380395 9.569721208124301 5.615176420750091
2707 2707 1 0 9.1705027079809 2.040497724114195 13.439898010560004
2708 2708 1 0 10.801159871656427 2.952723985433213 6.157917039610769
2709 2709 1 0 6.286358703797891 2.712942999897304 12.94472697894423
2710 2710 1 0 7.439614957253529 6.038188566244974 2.243561195326394
2711 2711 1 0 0.1758497854161624 10.794704967714148 5.346768166724793
2712 2712 1 0 2.0291913625172784 9.348153412668877 12.041170929456097
2713 2713 1 0 2.393814482743228 4.759429622275903 2.721430580054921
2714 2714 1 0 13.53142740799316 4.85358755255034 11.854210221138676
2715 2715 1 0 13.68229927344198 8.943815796636978 4.449934216730466
2716 2716 1 0 8.39862349516422 5.305110471595395 2.9788881957018507
2717 2717 1 0 0.20145916179407003 12.313081909550583 0.6545774546291016
2718 2718 1 0 13.070755669796535 10.634384826948155 4.05509909228527
2719 2719 1 0 3.182409351730008 4.284714484829494 13.697766697201098
2720 2720 1 0 7.71184768982104 11.663254312302922 0.5027196694735341
2721 2721 1 0 4.364036112450092 6.540659161153996 9.119801376281432
2722 2722 1 0 7.263162221679604 2.272883086105496 13.199088170330496
2723 2723 1 0 8.807249357034213 12.948116031488356 1.5030870230146482
2724 2724 1 0 8.87956857159505 9.653472801674065 4.09370795341683
2725 2725 1 0 0.389337038808166 5.644464754260066 6.877172604569728
2726 2726 1 0 7.740376062554674 10.934934128225935 13.088661787958028
2727 2727 1 0 9.875301022532472 6.844056432858671 13.457453990524055
2728 2728 1 0 7.840774125974794 6.400514520415489 4.431929044938079
2729 2729 1 0 3.1062131237780997 12.548240291349577 7.466910234703443
2730 2730 1 0 5.507154912213497 8.912068121434084 12.029326529782528
2731 2731 1 0 11.269501439386982 6.914621418382761 5.340428334261502
2732 2732 1 0 7.007971601220258 2.261423277197922 8.428886617292521
2733 2733 1 0 2.200396146759272 5.292697324663161 6.981701926854274
2734 2734 1 0 13.371016341788367 4.745027043926137 9.832151449900795
2735 2735 1 0 13.433510798440018 3.3545631864782353 9.870919614357279
2736 2736 1 0 6.474081094919056 9.20912432086643 9.171666978287304
2737 2737 1 0 7.957831706548179 2.088272233483375 12.227859030875049
2738 2738 1 0 13.429444567811547 11.333406819374602 11.200835139412895
2739 2739 1 0 11.080047387479429 10.613387717906226 2.8551987978938644
2740 2740 1 0 2.457864246504192 10.413699153946926 2.0202217193585073
2741 2741 1 0 7.525073522018818 0.9531421108861834 12.70069020745646
2742 2742 1 0 4.053353205651225 3.485441416267338 3.5110298952599903
2743 2743 1 0 9.965548355341344 2.21737131942125 5.583737391586228
2744 2744 1 0 4.425022556267087 5.31221400484067 1.586767524506531
2745 2745 1 0 11.212585133207224 0.224474746715442 6.423449511214153
2746 2746 1 0 13.169278368172382 11.229584212203429 6.7953000994143355
2747 2747 1 0 13.950449247944022 4.185921629139332 3.386693883320178
2748 2748 1 0 13.828773945097021 0.4510636185604976 1.1321141304606899
2749 2749 1 0 1.7614805126130124 6.771451682791353 5.968399287617646
2750 2750 1 0 10.959888887275156 1.276360363752625 5.710225191355453
2751 2751 1 0 5.464635899608071 8.775400035965356 5.355063620775581
2752 2752 1 0 14.021002935108308 12.547497222089953 13.939967435974285
2753 2753 1 0 13.890431584157147 7.375262138876084 10.20220759825174
2754 2754 1 0 1.7017683049781243 0.9599079961488985 2.0001164415757704
2755 2755 1 0 0.9869571112678039 1.9019198528953762 8.509083505589688
2756 2756 1 0 0.21832269236647933 7.539823515261576 7.798456571692884
2757 2757 1 0 10.509766955761126 5.386163343859838 6.637626177037941
2758 2758 1 0 3.3055129117673867 10.802280006341663 5.514350753372404
2759 2759 1 0 1.019087070781202 7.555037885133089 11.980210357322196
2760 2760 1 0 6.62889655151727 13.280338542195636 3.130887121280599
2761 2761 1 0 1.9508238734069838 8.521859173054642 12.984283766346241
2762 2762 1 0 0.06221036963025112 9.881303195117065 9.144557357087038
2763 2763 1 0 6.090414306580695 3.0522327820830233 3.623334328068169
2764 2764 1 0 3.832979903457336 1.8796071707232103 5.114424829766622
2765 2765 1 0 6.781225848646554 4.997039662618725 3.696502228107143
2766 2766 1 0 8.406598890860439 10.992754975900581 7.547070672376095
2767 2767 1 0 1.7200895275787378 5.012969644912855 4.195991892842487
2768 2768 1 0 9.215281645946087 10.209301070063127 8.326777098311725
2769 2769 1 0 2.0593823414565855 3.636995865302461 12.100485925022861
2770 2770 1 0 0.06211472251912592 10.034174547792635 11.456252961963855
2771 2771 1 0 7.440452799203488 6.321321008150006 10.877186763437901
2772 2772 1 0 7.438508832393038 7.097403675982145 11.021933695444103
2773 2773 1 0 0.3266921546956844 1.276442307357638 2.374783829725785
2774 2774 1 0 1.4497959703035825 13.887264871530986 12.26140374958639
2775 2775 1 0 9.61148338968079 7.234976919884513 3.9009424202699448
2776 2776 1 0 4.816263741954812 2.561122019528119 6.66133961274906
2777 2777 1 0 9.7241482430722 12.59008588414631 11.34749261435914
2778 2778 1 0 2.506676922692752 12.465016978145622 11.686915062258167
2779 2779 1 0 12.413769941581887 6.0268891070792865 8.937657967749503
2780 2780 1 0 4.871327968807824 0.6524453905500638 7.6130207294470935
2781 2781 1 0 11.409411999213868 1.1170019315985684 11.34202771706894
2782 2782 1 0 9.744875694902658 4.697082681375908 2.52104150473868
2783 2783 1 0 12.078605380466916 13.08166400519948 9.359332465708395
2784 2784 1 0 0.8725335967050121 13.796201006965578 13.608145479494905
2785 2785 1 0 10.672084026988067 1.660655405827851 12.070528300882991
2786 2786 1 0 4.317600281412104 5.999696818939822 3.4049179118747235
2787 2787 1 0 13.58582888653771 11.019578830876432 12.885645288177233
2788 2788 1 0 12.727308166973854 3.2468352909369456 3.055509787680539
2789 2789 1 0 8.237206812713058 11.27300874306466 11.372461980719873
2790 2790 1 0 13.539747244459486 3.716816552155521 9.79692280413903
2791 2791 1 0 1.8969034059917613 12.536012457723148 12.22846038426068
2792 2792 1 0 3.905951376508653 11.43214891116165 1.833235978244985
2793 2793 1 0 12.306497176307964 7.031963229829032 7.938366456525948
2794 2794 1 0 4.638730513439927 11.488045388150791 5.701213617299427
2795 2795 1 0 3.6384727010881868 8.244105507834062 8.289223546579601
2796 2796 1 0 7.171264200557812 3.699286024208594 9.951698274430118
2797 2797 1 0 6.146976061690605 9.029656651661002 6.715429277422942
2798 2798 1 0 7.013010895277617 12.86694378166334 0.29304635380756094
2799 2799 1 0 6.3610546721384456 10.044367055242201 10.458948786535139
2800 2800 1 0 10.123818348976616 13.863837679473214 1.9840668691561558
2801 2801 1 0 8.488155612727503 2.09473536376661 11.920400353986532
2802 2802 1 0 7.276123047475249 6.768490115967497 10.811258778203559
2803 2803 1 0 5.780521047024663 11.816136089848728 2.5112577171220356
2804 2804 1 0 1.6158353749369363 10.717324024503098 9.738924566787126
2805 2805 1 0 2.9999958326716603 10.960319415715778 8.327919417290575
2806 2806 1 0 6.371486028103982 9.49882752894339 9.44744464678192
2807 2807 1 0 7.086726961151293 9.703454045881792 4.2807498442533545
2808 2808 1 0 3.4019727064572756 4.021524498132899 12.562988589870294
2809 2809 1 0 10.434792832073827 13.722429082707 12.163653790023037
2810 2810 1 0 9.622785644234558 10.298936040680074 0.7552477943095317
2811 2811 1 0 4.0956627950947215 5.94402358461156 9.964290893933788
2812 2812 1 0 6.3818897130815735 10.256523067340492 13.912961370364503
2813 2813 1 0 4.358849111115522 5.524833959520939 5.096412572227492
2814 2814 1 0 8.090385281776324 8.778862054758253 5.18886386132432
2815 2815 1 0 10.742318446013309 2.715151054010766 9.4606846628099
2816 2816 1 0 13.081308341300065 10.669209317742421 6.500059974748967
2817 2817 1 0 4.441912850114952 1.3995083489495888 10.186249850277363
2818 2818 1 0 10.580968918528098 0.7511147076297169 3.4094428242003727
2819 2819 1 0 2.7499964543109296 5.520635166657903 4.2486099507949895
2820 2820 1 0 10.145824655910586 9.917138821623121 2.026338400564811
2821 2821 1 0 6.115938780316103 3.740033178763757 5.412001880022541
2822 2822 1 0 7.557343437283187 11.27391416551116 5.998787834914053
2823 2823 1 0 6.531308274967416 8.187639147338539 8.981037747190495
2824 2824 1 0 9.333127602122856 8.02433965240559 2.817383377093923
2825 2825 1 0 6.467687423324696 12.503557010763908 10.318794593168228
2826 2826 1 0 13.9395854279659 1.4992270617013028 13.521545615613531
2827 2827 1 0 13.018370667218282 1.352151897846963 0.44303566121423404
2828 2828 1 0 1.3389985915322378 0.894505041646482 7.672242101256305
2829 2829 1 0 6.459640036897599 9.7806665821677 11.788048914098933
2830 2830 1 0 3.2597024134311194 11.578046310365268 8.800225440973685
2831 2831 1 0 5.949143826215521 9.31117236735759 7.623905439589643
2832 2832 1 0 0.07751755235870299 5.870507396630153 1.4340096971917882
2833 2833 1 0 3.3259136280554245 7.639172426336683 1.487067168353196
2834 2834 1 0 6.530643959130486 5.556544550077518 13.926858011550955
2835 2835 1 0 4.66732837873043 13.49200995229099 2.947098762899257
2836 2836 1 0 7.9576869627659255 5.151807663946897 13.969673636152494
2837 2837 1 0 13.920818952672985 13.100769670574996 2.561366086982984
2838 2838 1 0 10.552170345556375 9.526491752193605 13.138964503727648
2839 2839 1 0 10.334032781598268 9.2044081735409 13.241192595135397
2840 2840 1 0 1.4756351318674183 1.6229600511639775 1.87161506572006
2841 2841 1 0 8.641859468727667 13.354190037476481 13.945263071952919
2842 2842 1 0 9.60512478877154 7.77972762914288 0.43152365129185094
2843 2843 1 0 8.733655940383208 8.403699019100586 2.9647379695961544
2844 2844 1 0 7.119848774661449 13.792735757709224 4.60545028573467
2845 2845 1 0 8.710986523328575 8.987280329177906 13.330545730661957
2846 2846 1 0 11.255717496832963 1.0865066661822071 1.0391597193820337
2847 2847 1 0 8.220689499948682 1.0052210357261422 11.906235168490674
2848 2848 1 0 8.565576131948776 2.5101087702126725 8.388701584297245
2849 2849 1 0 8.22767664669692 0.4307378796015623 0.8038852630362414
2850 2850 1 0 0.7462602186032115 4.777888519775411 11.195308106076274
2851 2851 1 0 13.532686607153751 2.9685070740446773 7.8095710728654435
2852 2852 1 0 0.38367152038742514 8.393180370571876 0.9432779842726321
2853 2853 1 0 3.2877639455166996 0.00777828296896941 9.044756942582588
2854 2854 1 0 10.36795069018002 3.937754658611476 1.7612016618614543
2855 2855 1 0 5.8605074703793605 1.1730109718075363 2.653650930956835
2856 2856 1 0 8.952037336380005 5.681312314407562 9.350719120773155
2857 2857 1 0 5.810582979049518 0.8130194037399201 5.72755209961857
2858 2858 1 0 10.280876287094763 0.4385284878464105 13.558878698589854
2859 2859 1 0 8.547806480237742 10.381818157444672 11.419575629626948
2860 2860 1 0 3.3002594372120213 1.2504484534772229 11.573145629484
2861 2861 1 0 3.535880738453787 11.202149506569647 0.2595895998768742
2862 2862 1 0 11.097594367794734 4.862084808928359 7.960824083896972
2863 2863 1 0 3.737540006395874 9.434678203160011 13.070918602920266
2864 2864 1 0 0.04418380214955021 6.6624787682549425 12.770579399596484
2865 2865 1 0 4.865532671814613 7.4859452718809205 0.48257138398645
2866 2866 1 0 12.588466783220088 8.665789014499635 9.106267610291592
2867 2867 1 0 13.045263069933723 9.811092340369168 1.676324753130089
2868 2868 1 0 7.138190048559397 0.543090220807537 4.784511218637804
2869 2869 1 0 9.891655348025077 1.5427744819874103 13.719861718051087
2870 2870 1 0 11.384416268892831 2.8425243204358552 10.080720061266382
2871 2871 1 0 12.287842957107046 9.749168736865014 7.863317615226733
2872 2872 1 0 6.106119206511485 8.80039604757813 7.078371645566387
2873 2873 1 0 13.887829180721562 1.2162789913663357 6.664241817633796
2874 2874 1 0 7.443269377515023 7.587474088816215 13.060983634670386
2875 2875 1 0 0.9666039264923928 5.013165611446372 13.612024710747352
2876 2876 1 0 8.735587529890907 13.174460199210154 12.539800463843985
2877 2877 1 0 1.7067805759323622 7.614344242040955 8.52015579167129
2878 2878 1 0 13.48655169037533 12.36904316109692 5.270812291089654
2879 2879 1 0 4.133796626408939 13.702103003371908 1.7599911916738409
2880 2880 1 0 8.920557489998874 9.700705346941989 12.503826942861167
2881 2881 1 0 7.484455695176849 6.357777521785303 9.741200840135933
2882 2882 1 0 11.332903581602244 6.322223859591026 11.888368282835835
2883 2883 1 0 1.3304720570120054 8.238849929043724 3.9072318875619647
2884 2884 1 0 6.5705703504010575 11.041406231747187 1.0654444835708012
2885 2885 1 0 3.0816196951994583 12.948573498764407 10.959571041165132
2886 2886 1 0 1.0493207993171143 3.770156025312625 13.91160402778606
2887 2887 1 0 12.820837548403183 1.8216330567269678 0.5505792679676413
2888 2888 1 0 0.5083438110010724 7.52536132921813 13.74715945926876
2889 2889 1 0 3.0821968111903337 2.309126059702876 2.642352453923877
2890 2890 1 0 10.64204419455981 1.5485940711149642 10.548273672838471
2891 2891 1 0 9.84001279855533 5.274680686148058 6.6786564463661815
2892 2892 1 0 8.548091055455522 5.121889824583523 2.5689058554995623
2893 2893 1 0 6.862721585978547 2.373994684136013 8.476918676733387
2894 2894 1 0 9.145722364260454 7.627638605426902 6.477979888472756
2895 2895 1 0 5.044549682705119 13.812986090270671 13.682472631921224
2896 2896 1 0 6.578916627617559 0.8213879682204966 1.5883312954239506
2897 2897 1 0 6.8974538835020365 8.504211092943684 10.419681804672528
2898 2898 1 0 1.5735402633413467 5.616862466107846 0.08922266936320496
2899 2899 1 0 6.172384184527247 2.8061227870539436 0.3405771131572134
2900 2900 1 0 5.100509549531268 3.0815462504548 9.007228551836194
2901 2901 1 0 6.450586663077762 0.06414716760827109 6.968429604854233
2902 2902 1 0 10.638668590192896 6.1148820717626 11.49263339377493
2903 2903 1 0 13.360307186997408 11.018887996945859 2.7148482908496185
2904 2904 1 0 0.6520141301408999 3.9177518880379067 4.893175456344204
2905 2905 1 0 11.821915886810054 12.029962373016248 0.7210682428136177
2906 2906 1 0 8.375179246066347 12.309779722036525 0.2899205838532837
2907 2907 1 0 5.331226390631977 11.873938267048691 4.300891440509034
2908 2908 1 0 0.06185176750312865 11.207291176444585 9.539066861551383
2909 2909 1 0 10.436694180664974 10.564669310829444 6.503432562790499
2910 2910 1 0 4.634837097232713 4.872494716294763 4.047593118885286
2911 2911 1 0 13.877576116067049 8.007201955189224 11.798525725791922
2912 2912 1 0 2.3405270849561237 13.875925269315946 12.283499520222968
2913 2913 1 0 0.5124776847921511 3.3750220353396814 1.628421393645993
2914 2914 1 0 8.727970078288498 8.81927128441173 0.30680488139461104
2915 2915 1 0 0.7724099192368351 10.65607218721701 2.997225797606964
2916 2916 1 0 6.245836979770107 9.781793506111535 0.6087690620269944
2917 2917 1 0 8.976785996256021 10.641915602465359 8.325445585903546
2918 2918 1 0 0.44648577317728316 6.934515911377689 2.6467934579971515
2919 2919 1 0 4.754549252035367 12.832477947640731 5.864450927687687
2920 2920 1 0 6.77053273714004 8.005597629449241 3.960397332352068
2921 2921 1 0 0.6188550976414033 13.943576607322804 6.1072233419858035
2922 2922 1 0 0.7612303955502496 11.66263896081261 2.584020426540891
2923 2923 1 0 10.058599490555236 11.336321261078984 11.333019085405466
2924 2924 1 0 13.465967752582248 7.435771282152213 7.996368979983336
2925 2925 1 0 3.7983368069299517 6.576201403488149 9.445227949446837
2926 2926 1 0 7.421855023277763 3.8856201840631885 12.0095150657485
2927 2927 1 0 13.677959611302397 8.043118044881652 2.3349785121669098
2928 2928 1 0 6.201069955633683 4.055391199731006 8.242372818325569
2929 2929 1 0 1.8102993709186581 8.851468714919823 6.812215550409239
2930 2930 1 0 5.698246432088076 8.885747675610238 2.2854818658334497
2931 2931 1 0 0.6715231374778958 14.027990817254903 7.927103432700075
2932 2932 1 0 7.40815370847684 5.940327637634964 13.778617269541188
2933 2933 1 0 2.400415830834345 3.4443382255283987 1.7196657173998833
2934 2934 1 0 4.96731225607905 7.588804436160258 8.100456709812343
2935 2935 1 0 7.536148231222989 9.86788889535472 8.48782957506634
2936 2936 1 0 5.325904346942945 0.17179507793766405 1.3054080409656006
2937 2937 1 0 11.03421147320892 12.462486170643837 11.015551365391898
2938 2938 1 0 11.694970192769413 5.926580311143271 10.809552517674762
2939 2939 1 0 1.9215839064844416 6.250743489990432 1.3186636686874942
2940 2940 1 0 0.9560481182853559 10.749538484781025 7.648582198052783
2941 2941 1 0 3.4237908270904702 12.426452329530964 9.117060753980034
2942 2942 1 0 8.868348057674705 3.6679992393624166 3.2158491212292635
2943 2943 1 0 11.933236531634662 5.70079528084773 13.1657749952583
2944 2944 1 0 6.332158129737457 7.745780509766083 8.078166898671029
2945 2945 1 0 9.382056499212005 12.984557960233351 3.202302344704149
2946 2946 1 0 6.140489576668119 4.292292857700746 2.5303883624203634
2947 2947 1 0 8.696240617880804 8.365218259969797 6.299945386730815
2948 2948 1 0 7.189497337197141 8.678505269974679 1.2959446250210869
2949 2949 1 0 8.331604253233259 12.153746766872151 12.477964695456825
2950 2950 1 0 1.5131092561498252 12.844800853766579 7.426744913251633
2951 2951 1 0 13.65962463920761 5.328515331661309 12.157735843308894
2952 2952 1 0 0.52102495354334 11.909097373062796 2.9825193374680388
2953 2953 1 0 3.525089730285863 5.215517466141999 9.398844737393622
2954 2954 1 0 13.44918384384075 3.8763964799569597 0.8604798244189727
2955 2955 1 0 1.7715880931854706 11.869563019265142 0.5187252233374845
2956 2956 1 0 5.137387104595242 13.922493894720114 11.78989485255507
2957 2957 1 0 4.229724240882524 5.2202985973411 1.4698559371842659
2958 2958 1 0 8.454239356273945 5.087552306569635 10.28971220356346
2959 2959 1 0 11.790287781696398 4.486385624886881 7.539356721373054
2960 2960 1 0 9.527990705211165 1.7616175014923805 2.269196539448653
2961 2961 1 0 3.3453150149117685 4.887637025584889 2.8282639990635743
2962 2962 1 0 10.343722975238972 1.3099773612499275 11.997064992961871
2963 2963 1 0 12.838610641957647 12.3546483704859 10.600782420401837
2964 2964 1 0 13.731784048138904 4.821741541091795 4.027392821681601
2965 2965 1 0 4.10677934977541 6.4285290285837355 6.709079508500049
2966 2966 1 0 11.66577408262674 13.977594997981086 8.682686201943953
2967 2967 1 0 0.5695222875805948 10.185779774594756 1.036503444257702
2968 2968 1 0 10.349785219797873 4.353567150034596 6.249669457157122
2969 2969 1 0 11.900918433377774 6.763149344949282 6.569690633926475
2970 2970 1 0 8.292869599519031 3.21488710839053 9.642328151016184
2971 2971 1 0 13.304134672598737 1.4843142783560268 10.943789661537767
2972 2972 1 0 3.033742182381248 10.05893424725811 1.5915153496673637
2973 2973 1 0 1.180292806052107 4.449477324063811 2.0375866944460226
2974 2974 1 0 9.195593937413337 5.123954506471099 11.230262564117272
2975 2975 1 0 9.070795589260552 13.416662518135007 12.318400258404846
2976 2976 1 0 10.122878814923226 1.41014565009857 3.610728387604123
2977 2977 1 0 1.4758953077109602 4.431757277608408 1.8557695592099934
2978 2978 1 0 2.3896268313518845 11.29672755673965 1.741139066721481
2979 2979 1 0 7.46721300612781 13.052068777117428 12.951555946906849
2980 2980 1 0 4.180800057531468 1.2365269383767385 13.869745542969302
2981 2981 1 0 10.270941798389055 13.085200220731698 8.95010701995573
2982 2982 1 0 13.167813334466178 2.1529462650903777 4.476738350918936
2983 2983 1 0 2.8717262906508187 4.053831839357863 6.949690870097275
2984 2984 1 0 12.055075372207344 0.5326510074222378 10.317936427982112
2985 2985 1 0 4.696248883546853 7.680025379146304 4.247901851258008
2986 2986 1 0 13.706532239909269 7.334359518644182 7.03841721658517
2987 2987 1 0 0.6764944491681568 4.899450157514351 12.52926905129782
2988 2988 1 0 5.843904947977601 13.312410755076296 4.444092785724424
2989 2989 1 0 12.034216911539193 8.715581130929824 1.112501214808546
2990 2990 1 0 8.70769138038973 5.521678617058216 13.730311096721808
2991 2991 1 0 10.798685864600648 11.63948994213797 7.362579313684386
2992 2992 1 0 11.911449379784647 5.084340161992924 0.28318119178686596
2993 2993 1 0 1.7512308673572865 1.5020774635994574 10.684216486366926
2994 2994 1 0 12.199681087681688 4.530629862523209 8.441764863908547
2995 2995 1 0 9.510709283031169 7.611142300917942 2.8491709329730037
2996 2996 1 0 2.041456630877624 1.2910326578235276 11.673059187169558
2997 2997 1 0 2.302503361035879 10.705609944370936 2.9500632653729024
2998 2998 1 0 13.530776316844953 3.001419543401703 13.047942529988516
2999 2999 1 0 12.274826157800739 3.2294997636296596 12.879070694240076
3000 3000 1 0 2.4392340579819596 0.9131285421212053 11.920507408982697
3001 3001 1 0 12.949885546538482 7.973141207873872 3.788670378648061
3002 3002 1 0 10.521575910004694 1.629669548725666 10.54547471068976
3003 3003 1 0 6.237589746349074 12.647260755554521 9.022730585455413
3004 3004 1 0 0.4784263674782395 1.7530074607262576 8.182034263314216
3005 3005 1 0 2.3953676880207064 3.4629219347541857 11.26249670308026
3006 3006 1 0 5.904376631333268 12.46613983592903 3.5764500153276755
3007 3007 1 0 8.809453685452233 12.745824389670908 6.519104858100199
3008 3008 1 0 1.3086419248520478 9.711073502218202 6.346474659023117
3009 3009 1 0 0.24689541492011013 3.920870082088368 3.563178369747211
3010 3010 1 0 4.762487974634025 7.450016781331241 0.47364484926806366
3011 3011 1 0 12.339531990069652 5.710640175385303 8.018664676237004
3012 3012 1 0 0.5610157527361878 1.6022872228004734 1.1391637926995375
3013 3013 1 0 6.985728550870769 6.55138291082512 0.32490301145411427
3014 3014 1 0 4.999761949084965 4.205370828319998 3.40792256857776
3015 3015 1 0 12.724593173630149 11.438983449469319 4.570911455732739
3016 3016 1 0 8.691769585448302 11.080514849936336 8.897990535256428
3017 3017 1 0 3.3534147694554206 11.058344773241839 6.951692320589161
3018 3018 1 0 12.06246296758413 8.293608287873923 10.62540333553332
3019 3019 1 0 7.34528395109345 7.060619743518756 6.3975241831940535
3020 3020 1 0 2.5073431631151926 10.079702306289148 6.227288959236363
3021 3021 1 0 10.958936724840363 13.554630770013025 13.757782299639203
3022 3022 1 0 5.831633390147991 4.6536818536435165 13.813141711012674
3023 3023 1 0 1.9734814011387072 3.7354605254464075 6.366917001159647
3024 3024 1 0 5.572914838809741 5.780628940959507 5.967453425269862
3025 3025 1 0 5.960708049103471 1.373394353702556 5.81180430241522
3026 3026 1 0 5.7903588876901315 7.077056860513515 12.017846987275012
3027 3027 1 0 4.5814518821229955 6.199624552792093 4.633478681714548
3028 3028 1 0 11.538042883594432 1.5387789118457162 9.798915979984509
3029 3029 1 0 10.950903147108495 6.017542137237931 1.005465206165629
3030 3030 1 0 3.7708087838347906 13.724846877928549 11.662625270411846
3031 3031 1 0 6.140726482260071 11.057398979778178 4.311799725271062
3032 3032 1 0 9.39128672397036 9.654600080814495 8.545316700920768
3033 3033 1 0 11.135882033303758 9.37888518486017 13.58003990652209
3034 3034 1 0 4.624450370196025 1.835380172342266 6.033598377409499
3035 3035 1 0 8.66357724600853 2.6940662772808603 6.898076160742511
3036 3036 1 0 13.682125810912833 10.053649828714297 13.176739805847367
3037 3037 1 0 8.177750206621614 13.603560793954498 7.78554843414141
3038 3038 1 0 4.15590583313473 12.98913722941009 0.06442976811576072
3039 3039 1 0 1.370334601311025 11.817960884128665 6.538613946672487
3040 3040 1 0 6.627429943420212 9.194890517619957 8.924740759705365
3041 3041 1 0 12.766457304308577 6.699588726659821 7.592087488396139
3042 3042 1 0 13.053609833338921 3.889590616037799 13.683552101397733
3043 3043 1 0 12.597576523647257 7.002764681490032 3.78775918732695
3044 3044 1 0 8.064684671310761 3.118201895882532 3.6513692797249537
3045 3045 1 0 8.537847542553754 1.2454570212334795 4.912814088654308
3046 3046 1 0 12.298413753207546 0.8875949482749417 2.4192706094556478
3047 3047 1 0 4.867603162993485 2.2231481409746556 13.327375833457955
3048 3048 1 0 11.127253429694802 3.8932218246007317 8.347951916328451
3049 3049 1 0 3.2617122234543596 1.6529955581807705 5.993392179476084
3050 3050 1 0 1.9332961953243755 11.749830100000517 5.8670491681183
3051 3051 1 0 0.8539175387105464 5.882989742054422 9.737101980293518
3052 3052 1 0 13.690619062849919 4.6333061158909565 0.1525233255742149
3053 3053 1 0 3.742444600037295 1.5615880268370963 0.8275738036438325
3054 3054 1 0 6.525193706605707 0.5820811090579101 6.667753317262371
3055 3055 1 0 1.3526492001517172 11.32851567302908 5.641071441121555
3056 3056 1 0 8.505179082258868 10.899906355107529 4.353537065593069
3057 3057 1 0 13.328739719597296 6.423737607148431 1.130760464174672
3058 3058 1 0 11.677772333244757 10.54466385791675 13.472473658526452
3059 3059 1 0 7.052987919308369 5.550938474006416 4.531320946422977
3060 3060 1 0 3.7585798438381612 7.576335716432421 8.929975292274438
3061 3061 1 0 13.473868046416674 11.475423304207297 12.332039897065643
3062 3062 1 0 7.238115381796824 0.47971345197104054 4.406670059580215
3063 3063 1 0 0.5907983302508282 13.412062075911956 8.352598179813082
3064 3064 1 0 3.1397868319397824 2.3425855178114166 3.668859718508156
3065 3065 1 0 12.502912593686409 1.3230859547180847 3.4084213733810507
3066 3066 1 0 4.796866742434814 8.34000023845085 2.5747490266841235
3067 3067 1 0 7.4906801742068865 9.072406599789005 11.578706269395951
3068 3068 1 0 4.217073543743188 10.417809355462753 3.1609310717750843
3069 3069 1 0 5.0455356887457805 7.970348247172825 13.896300304431259
3070 3070 1 0 13.646703446701204 1.15136491684587 2.9890920804872017
3071 3071 1 0 0.15837683595205784 4.521036669818841 3.9382124624530332
3072 3072 1 0 12.458904955506426 1.163879775596724 8.122771486804902
3073 3073 1 0 3.0606987752762986 1.7390015329907011 11.495789920830054
3074 3074 1 0 4.098559744831698 7.064108328434085 1.9856654568945928
3075 3075 1 0 13.869483742629138 8.068910988668089 10.996149461542219
3076 3076 1 0 7.77508760289473 10.723128449748096 3.2624023451267674
3077 3077 1 0 9.422267824738343 2.12430609357694 1.310237148781522
3078 3078 1 0 4.795852871249312 3.8294339061976723 9.613442650434365
3079 3079 1 0 0.35821785551505575 8.233761460279421 8.349237445830079
3080 3080 1 0 6.783424958907078 12.146300174021789 3.773727952654816
3081 3081 1 0 12.918446872055988 7.72907818408025 0.04886653925267514
3082 3082 1 0 11.090573557859974 5.331212087414866 3.0666436054250568
3083 3083 1 0 0.6068497936766348 6.486488770778335 3.905546478187232
3084 3084 1 0 4.454041770365086 3.6451917616730336 2.8490151554263172
3085 3085 1 0 8.829422602351347 10.64344263867122 11.92417163936924
3086 3086 1 0 11.013284768534453 8.775577229879879 6.785803604281654
3087 3087 1 0 6.969489687413157 0.16074839214648318 6.037972906108815
3088 3088 1 0 5.250450788717656 10.626828421591028 9.575542781818635
3089 3089 1 0 13.338753644100569 2.964888719262663 13.017006740590947
3090 3090 1 0 10.652951173098225 5.117557426600198 6.406349620538068
3091 3091 1 0 3.7688548925085956 0.7985428833309814 5.036943090710383
3092 3092 1 0 4.0688608733193705 9.89548241821898 5.271367966852474
3093 3093 1 0 13.46750419674943 8.0049289246813 13.935244792971266
3094 3094 1 0 11.078487535238684 4.4688258041844895 5.188598047899692
3095 3095 1 0 12.682858276096747 6.953192909110046 8.917745294210887
3096 3096 1 0 10.73783648749532 9.593845253308428 9.994965315499346
3097 3097 1 0 6.967553496295159 1.5993433287176542 8.048243637504745
3098 3098 1 0 9.514916595294633 4.930316525048839 11.320529385444004
3099 3099 1 0 4.568454155252936 0.31514970486743893 7.801083562332254
3100 3100 1 0 4.713734168778927 9.314884483214229 11.536441283400361
3101 3101 1 0 10.98042003501907 11.85889513941627 8.798749763673102
3102 3102 1 0 4.442863449089782 2.6623979909907636 7.055219305613832
3103 3103 1 0 3.579564135698194 2.6884885404500847 7.761330905350784
3104 3104 1 0 0.6479128208021921 7.918164248669383 5.97148293475489
3105 3105 1 0 3.339654473477453 11.256473468766242 9.516795523030295
3106 3106 1 0 9.478351238190502 0.6707810236944344 7.259780309616013
3107 3107 1 0 0.5134182217635477 11.813439316569719 2.212907986904384
3108 3108 1 0 6.8220579271068855 0.8002582198571021 10.221035806407295
3109 3109 1 0 8.077149226398554 10.254272536480793 10.736688483886887
3110 3110 1 0 3.9654694879960934 2.4287935369932523 12.871964095274233
3111 3111 1 0 11.012139496314346 5.079837000962106 13.15300352403852
3112 3112 1 0 9.9710740895512 1.9107907257517949 3.9554979815999376
3113 3113 1 0 3.8160114887902448 7.933654773975494 13.453234569081227
3114 3114 1 0 2.4899838953395173 1.5244347389527948 2.350282146458712
3115 3115 1 0 12.31819370214948 6.293858834829457 6.064216451317795
3116 3116 1 0 11.535886819265222 9.448778200759534 10.488599292930264
3117 3117 1 0 3.4856812691980084 3.9771037548924566 11.85379271552464
3118 3118 1 0 6.24495886122143 5.358416935299999 9.186308718940543
3119 3119 1 0 7.183707183836906 12.605614577199107 1.6150523003801676
3120 3120 1 0 0.8882768347169566 6.595016179763246 0.1564106972810169
3121 3121 1 0 2.848437255277813 6.607183935644867 10.382931794057624
3122 3122 1 0 11.256128791806459 7.899554583357851 2.932916776358626
3123 3123 1 0 6.102293476588506 2.8575041023033467 13.517054606731758
3124 3124 1 0 8.213724787979203 11.529727928642313 3.091915271298042
3125 3125 1 0 10.905732113852475 13.918739729437451 11.154708165963257
3126 3126 1 0 5.245984216461382 6.8949919916391185 0.8460461471767604
3127 3127 1 0 6.8837817128314285 5.5586552596261845 13.043355382678156
3128 3128 1 0 9.7212846239198 5.258651402642251 4.121954798710604
3129 3129 1 0 8.629671170913701 10.857465055881372 2.600284123087747
3130 3130 1 0 4.852631182188373 7.5489498213426 3.9715846279531237
3131 3131 1 0 5.781795911323287 11.973930497817404 12.26987429332776
3132 3132 1 0 10.02780453977629 6.934362156908372 1.8789625339467322
3133 3133 1 0 2.3770075383186615 1.8270661643164146 1.802158985938352
3134 3134 1 0 1.1124762966999053 8.864448402049675 9.549150929705716
3135 3135 1 0 9.668441521518675 8.264336935913493 3.42853928997068
3136 3136 1 0 1.2081187095742223 11.464887970125538 3.7939062000932338
3137 3137 1 0 4.385789312547378 11.683415484198939 4.0156486128375395
3138 3138 1 0 8.433781858767837 1.301240417683536 2.324379882482262
3139 3139 1 0 4.117119641561844 4.9789854605952035 8.278820809356496
3140 3140 1 0 4.292140154323278 5.6577376788635725 7.476966789219917
3141 3141 1 0 12.829453502408361 0.5798407464768308 2.5673053508541877
3142 3142 1 0 9.563914133516864 12.764065408770776 12.309422690422792
3143 3143 1 0 9.673911668745744 11.399334513506409 9.843629862429532
3144 3144 1 0 5.308658785372388 0.41840302670400203 3.9676008066212654
3145 3145 1 0 6.914906032019334 5.851334951123202 3.230164413399652
3146 3146 1 0 0.30958519092889764 4.957898233252747 10.475492138595664
3147 3147 1 0 8.294621462466008 2.6338069251215885 3.1108123750212524
3148 3148 1 0 10.755384297464955 5.525583882944124 2.960231000890992
3149 3149 1 0 7.446435285033535 1.6749537072766314 1.1400056876215576
3150 3150 1 0 5.442800854884855 8.851739976111975 7.1642140770625025
3151 3151 1 0 3.1589823828866606 0.8365865239221578 10.380442886369849
3152 3152 1 0 11.496349771834332 6.986800373482009 12.59148035840277
3153 3153 1 0 1.8673400433463876 9.704359131229616 3.504067207302545
3154 3154 1 0 12.716146407395469 1.6168017491245439 2.5600244316417737
3155 3155 1 0 10.664342282317225 12.471625360409552 4.541851713913518
3156 3156 1 0 11.323321301126441 9.492166811675999 10.809037527825346
3157 3157 1 0 11.072076604025154 4.6467687119013945 9.441826590845007
3158 3158 1 0 0.571342726150658 9.651102791822897 3.351151407291294
3159 3159 1 0 4.085682506148594 3.352977118531865 1.1450488541520025
3160 3160 1 0 7.864705866363611 7.860954063967876 13.028081972591119
3161 3161 1 0 4.0046633648983345 5.999054019005649 13.035186283726567
3162 3162 1 0 6.201799562957976 2.022994905759946 5.7350806518954185
3163 3163 1 0 12.734889293216012 1.0291198617221198 0.9576627665569415
3164 3164 1 0 0.7840001316565434 6.6420751146685255 0.7894338502969934
3165 3165 1 0 11.582729125850731 11.36855536888674 10.51268676224441
3166 3166 1 0 2.6096872449614352 4.192952727280241 4.306289957325485
3167 3167 1 0 3.604982040669934 7.6643373441317415 4.465486403038163
3168 3168 1 0 13.206751218094317 6.128869033637637 11.721828813996245
3169 3169 1 0 2.570968348681651 4.582917707487909 8.058404423014954
3170 3170 1 0 1.7846624316951223 13.848549996540891 1.6751248163349648
3171 3171 1 0 3.210579625884993 1.431337858344216 0.22874898238155333
3172 3172 1 0 6.574205616648798 5.883496705580489 7.7669302031511425
3173 3173 1 0 11.029994770104118 10.505190783608866 1.125974096852409
3174 3174 1 0 13.954863327051159 6.834453375482683 9.156212697110206
3175 3175 1 0 5.8985643158817815 1.023811645963348 3.858875338441287
3176 3176 1 0 7.637463142034924 6.78456825003275 3.019025482420655
3177 3177 1 0 10.599104057686219 13.247400665438125 0.5838979966648399
3178 3178 1 0 10.113628452431048 7.380290737171626 12.18399608339612
3179 3179 1 0 11.398594411806199 0.6070794120156361 7.27961300491685
3180 3180 1 0 13.995420510280828 3.2877578713681923 4.280403000955331
3181 3181 1 0 0.9725243575495541 2.9305435121110017 13.086896181371154
3182 3182 1 0 7.095827348952218 1.6246425415337828 4.127439968528529
3183 3183 1 0 9.388364138266278 1.8073764476488186 11.317072275123179
3184 3184 1 0 11.213844636698317 6.16371653426627 7.888720898834597
3185 3185 1 0 7.141529226300958 3.0794745725980652 4.486241618706516
3186 3186 1 0 0.46402846885842053 6.024699775486304 8.337451100518921
3187 3187 1 0 7.748730616654936 4.761272477274526 6.47953853435788
3188 3188 1 0 13.924795303488871 2.1233502610369515 13.379669029343994
3189 3189 1 0 6.0655184287059365 1.377610943067075 13.846762637421087
3190 3190 1 0 3.876915573345906 3.4684807280374477 8.284807094157545
3191 3191 1 0 4.853989651113631 0.027870425525901753 2.631381508628031
3192 3192 1 0 11.746410590126168 6.089102804263373 10.743274271447042
3193 3193 1 0 3.0544802761379795 6.047076720325301 0.9943063100966855
3194 3194 1 0 9.49033977312594 13.0302424220389 9.724916839135837
3195 3195 1 0 10.177751692930542 8.126882799835286 3.7739232936013205
3196 3196 1 0 12.402897536958438 4.5643690215517125 4.708528746222238
3197 3197 1 0 0.23084797417416894 3.7567426223327582 0.44827797297954314
3198 3198 1 0 13.841711803616874 9.118387891933285 7.040636659107515
3199 3199 1 0 6.948385276694685 7.792342474443854 1.1675973485510258
3200 3200 1 0 12.737835150175012 3.429989452134006 0.8160640523917044
3201 3201 1 0 2.116722993143082 0.497386412206867 3.544850841957326
3202 3202 1 0 6.188619070407013 13.923831709310218 13.40752803964514
3203 3203 1 0 11.614050604858374 13.556601013660753 9.33012133354756
3204 3204 1 0 1.0123048192706223 11.325287428722278 12.538306914970411
3205 3205 1 0 4.730837541320357 0.6884802645534753 10.214189197420094
3206 3206 1 0 9.205106379922343 10.436865159829603 5.0817796834399624
3207 3207 1 0 11.093050604786619 6.4267061708585675 0.20285830133411403
3208 3208 1 0 6.061088553603818 12.94561073041816 8.705255673191916
3209 3209 1 0 9.653643941459318 2.4368768388010857 12.94509896436427
3210 3210 1 0 2.9249388744775127 4.595362674958346 8.135606547953302
3211 3211 1 0 7.652790391581436 7.7729163237649495 1.5596443545465444
3212 3212 1 0 7.255523943757753 6.204119766265934 3.470684604539896
3213 3213 1 0 2.1060622674817724 8.6990138383349 13.454824406297297
3214 3214 1 0 3.5912927964805 9.83890162945523 11.256414031410976
3215 3215 1 0 1.397617659142627 12.305270545172903 9.986221154073194
3216 3216 1 0 13.800589597903311 2.5145453718770905 13.105850000741103
3217 3217 1 0 9.473236465465629 0.8078239696331249 13.141501007684324
3218 3218 1 0 11.253474133713945 2.532989450396693 6.332132299087725
3219 3219 1 0 1.320998985031674 2.613346177523539 3.150603083569597
3220 3220 1 0 2.3858823744546096 3.172572797014183 12.16299229046193
3221 3221 1 0 4.165441282214072 12.34584182859922 7.614649533786823
3222 3222 1 0 12.208194940072742 7.822075950682992 3.095160977751036
3223 3223 1 0 9.177745455946976 7.689360891775507 13.515759109277452
3224 3224 1 0 11.527910691665559 3.435646885176798 3.843982498373729
3225 3225 1 0 11.767334934031219 3.151324777110443 0.7365584095379826
3226 3226 1 0 8.130998770630047 4.324203784769599 5.661321234539871
3227 3227 1 0 1.7742515935136958 5.532126473457599 10.91116842919834
3228 3228 1 0 6.7222597801706145 5.076325414971441 8.484165967683639
3229 3229 1 0 12.413615808620886 6.681496341963091 12.465106761094189
3230 3230 1 0 1.989592550855938 0.6402970328506784 9.067195608720768
3231 3231 1 0 2.830045533852169 9.327578749471908 6.6561575903730645
3232 3232 1 0 7.089778873386289 1.2041979023168006 7.927784202116544
3233 3233 1 0 6.6960467976482025 4.226952015225365 4.291302842405532
3234 3234 1 0 11.508586255008172 2.47821440089447 3.8805498881202314
3235 3235 1 0 11.969791378469376 13.673414629915936 6.835633761582901
3236 3236 1 0 9.108586092724492 13.318778319416301 12.755946075593915
3237 3237 1 0 9.583488413663638 10.883095110310036 1.1089839818092415
3238 3238 1 0 12.467666328913712 3.88383297659325 4.591419199979168
3239 3239 1 0 7.832073535812057 2.995770967720243 7.537485462198651
3240 3240 1 0 5.54271075131397 11.053584190686248 8.972803534272924
3241 3241 1 0 1.2644342119412333 10.827450052545597 9.643975948731695
3242 3242 1 0 7.8391056217295265 6.012727572705556 3.8436671403496807
3243 3243 1 0 8.652509555321046 2.496178169012188 9.075993227610894
3244 3244 1 0 11.450854500354849 11.997223453411161 5.430604057923442
3245 3245 1 0 12.368345758940066 14.041876740574304 10.641743241197084
3246 3246 1 0 8.334349579137768 3.321393558890481 12.749810062150534
3247 3247 1 0 1.3034143765666726 12.899863449255843 3.6778101689206117
3248 3248 1 0 9.214851872531371 2.0443456311903696 8.846344285094222
3249 3249 1 0 0.41059963413373024 10.657483005610988 1.1083507710792047
3250 3250 1 0 2.814800349500726 7.788187693425386 4.939501476726385
3251 3251 1 0 3.237944412730211 12.920266852787776 3.4497433269276994
3252 3252 1 0 7.168838679750747 1.628801082048312 13.378952632379274
3253 3253 1 0 12.584937710711886 2.1049077885448617 9.766197238697805
3254 3254 1 0 8.538366612139912 3.9503066728108998 1.5284056245727422
3255 3255 1 0 0.43549824145502164 10.718753682031158 13.958788153523871
3256 3256 1 0 2.339150708808281 6.453568735372303 12.097194576506904
3257 3257 1 0 13.307768113120286 4.56611289819819 12.613207645028723
3258 3258 1 0 3.1629317918843927 13.337268443107488 6.214100499068607
3259 3259 1 0 12.267256130402231 3.7068732667311366 8.3489362768661
3260 3260 1 0 5.1516666354314555 13.855608586534183 8.011239749042865
3261 3261 1 0 3.187872340775859 11.462502216059011 3.0147919187757646
3262 3262 1 0 3.1951558344939492 6.085473616484193 5.402832812848129
3263 3263 1 0 12.439525807615299 8.111653825514246 12.306651939913943
3264 3264 1 0 11.732813204951304 2.5474314762422625 2.2081814664276127
3265 3265 1 0 0.46157040614954614 5.490647342030331 13.722382116548891
3266 3266 1 0 4.644445827904696 3.5034283706651608 2.2565120407892865
3267 3267 1 0 8.751246417429602 10.24829114611055 4.333249188551382
3268 3268 1 0 13.793918045110093 3.5828146968544687 8.604684037227734
3269 3269 1 0 2.8861799056335644 1.5927363894873352 9.419062670811792
3270 3270 1 0 12.818033269536857 9.364469923350098 10.37961148520717
3271 3271 1 0 3.138997933115766 13.786089598982198 9.418046471369218
3272 3272 1 0 2.1248285443529817 11.386487206265999 5.068189174924977
3273 3273 1 0 1.5162089432103376 13.59873397073625 5.660104996855035
3274 3274 1 0 9.941315170995772 10.351729186788301 4.74201596085355
3275 3275 1 0 7.63775489966282 9.614198771445578 1.747055833645518
3276 3276 1 0 2.5801773999917117 3.4349218205511742 10.82563803343813
3277 3277 1 0 4.986807165529474 7.653048210707604 13.335433264741381
3278 3278 1 0 2.9990360821838973 5.5132076338963865 3.709199094706168
3279 3279 1 0 8.588471917196086 6.782680225317443 13.117127561344574
3280 3280 1 0 13.887161150257612 14.046117055817739 9.385412135889322
3281 3281 1 0 7.542635189934681 2.4192246439710754 12.618552454054871
3282 3282 1 0 11.269573483886116 7.850422081702873 0.2062156481746769
3283 3283 1 0 2.3921151220042436 0.8257787258963174 11.23411898927127
3284 3284 1 0 5.214487957772492 9.737992065401725 5.825620757432927
3285 3285 1 0 2.3505076420001147 7.585904482157422 6.121895906198111
3286 3286 1 0 5.163883304127641 9.56999077862968 8.751601981113565
3287 3287 1 0 7.491744233159534 5.4042713641288485 4.688938399309042
3288 3288 1 0 9.77576042037311 5.679240767050748 7.691447837162489
3289 3289 1 0 5.877670555387989 0.9152450008107543 8.653367588337154
3290 3290 1 0 7.7506981804237265 8.186717999283143 11.396847507159732
3291 3291 1 0 12.648481761112938 8.570510883137576 12.215744754290524
3292 3292 1 0 3.9000068910726684 13.495048948800134 7.275383793965418
3293 3293 1 0 7.962762279670562 13.33859165511653 10.402533709632605
3294 3294 1 0 13.10677053873133 12.94719786854597 3.8677716549066004
3295 3295 1 0 10.550401356800444 13.60339692052679 2.1484839133839873
3296 3296 1 0 1.760942523120031 11.413413166861641 9.151782091927835
3297 3297 1 0 6.34106685080756 5.936854022849375 2.000743695558243
3298 3298 1 0 4.991750539656121 9.635861875591415 5.842246499421019
3299 3299 1 0 6.568410624038181 11.960639635204977 4.786484724422467
3300 3300 1 0 3.6292961935866637 9.02123068072778 7.366259970825488
3301 3301 1 0 6.70239291052482 6.095513174724955 1.8455381721895645
3302 3302 1 0 8.453730864929945 12.74205475306602 6.247529669850235
3303 3303 1 0 11.22028376978598 4.271588476113224 11.082292592840725
3304 3304 1 0 10.804582026054634 13.89892087480443 10.340203578617368
3305 3305 1 0 10.611098001768957 12.861796730800164 8.26945516999475
3306 3306 1 0 7.481519147006574 8.806875115152282 2.327231405609007
3307 3307 1 0 2.043742111458065 1.9695925776422885 9.856472017260094
3308 3308 1 0 8.97298880661637 10.519960063855892 4.722278049733595
3309 3309 1 0 0.8190076608019721 5.084793142771921 12.03325392160654
3310 3310 1 0 8.809001531539701 7.8682257480244715 0.16109578988638765
3311 3311 1 0 3.499368627147757 4.71785535987832 3.185895296329109
3312 3312 1 0 10.67916429184959 0.8016525590113189 1.2785861790025401
3313 3313 1 0 7.686000468452464 11.577822365936688 10.779167244774042
3314 3314 1 0 10.281795003845337 13.452089281544907 13.927823673708325
3315 3315 1 0 10.76473596602758 4.176385512122308 9.975662831414704
3316 3316 1 0 0.7889940656406924 2.8940568164438973 7.510436184959457
3317 3317 1 0 3.384070566930491 5.123763575106317 5.771828136179652
3318 3318 1 0 5.0902263726477335 3.1723593675381276 6.154584247262184
3319 3319 1 0 8.335047588977618 7.732395756073681 5.70550125742565
3320 3320 1 0 13.077239845595608 0.45495255697435744 0.5042321715133857
3321 3321 1 0 5.592740607835878 8.977520914193581 1.385076050819088
3322 3322 1 0 2.9338680272222293 1.1466712582210754 13.045708901161305
3323 3323 1 0 4.753744646453812 7.074677402437633 13.223949540007075
3324 3324 1 0 4.802171680769562 0.9378688544475821 2.84611878685189
3325 3325 1 0 13.294945040589285 11.973775452469802 0.3725264353044151
3326 3326 1 0 3.6704271345431447 2.755870993622647 8.796422461244491
3327 3327 1 0 1.2513557510544475 1.76883155211947 8.795097154562567
3328 3328 1 0 2.5062193756010718 7.9597583394480225 1.7887021211821303
3329 3329 1 0 3.17128756752596 6.669351987570227 10.296723088496343
3330 3330 1 0 2.0700470588124413 8.800825211160289 6.9156588545497835
3331 3331 1 0 1.8959477043046915 3.0347905904786066 0.28177768708150724
3332 3332 1 0 11.935809264875099 6.759173236111808 0.9793513824561765
3333 3333 1 0 8.166193558822526 1.0554631951073514 5.754506479536494
3334 3334 1 0 4.427397782150549 0.8527567290094404 4.008767010446991
3335 3335 1 0 11.302331801693331 0.2153691955140946 13.079741057488894
3336 3336 1 0 13.468815767318157 4.389129403188085 7.27162398420715
3337 3337 1 0 0.46513989674317824 1.8294990176519346 3.7806112373668617
3338 3338 1 0 11.058034647258204 13.13854473760835 3.6237610225621872
3339 3339 1 0 8.831964099807003 5.490156451473795 12.191564513492185
3340 3340 1 0 0.522213978272305 9.04924999042163 3.1845740311776654
3341 3341 1 0 3.39821804957467 6.853583656872769 1.462448268392948
3342 3342 1 0 11.033563913734298 12.17255483266102 2.8664440943143803
3343 3343 1 0 6.04601530355682 0.3908673302493465 3.3025798092561516
3344 3344 1 0 6.690292702622572 7.502924822810252 7.504240115843555
3345 3345 1 0 6.116830368867413 0.9895895563426377 12.724675000466066
3346 3346 1 0 3.293236474485178 8.542523915733323 1.4790013671876368
3347 3347 1 0 0.35479485061822014 2.212067274761631 0.5331269546649084
3348 3348 1 0 4.423623485658564 1.557512776702792 12.68373493560526
3349 3349 1 0 0.6430364982229275 3.026834312026253 9.42084896261299
3350 3350 1 0 8.714555424786324 2.1409291269819675 10.98456568274055
3351 3351 1 0 1.5516011184435587 13.51721146890563 10.018589795798311
3352 3352 1 0 5.048665500761791 6.603403994046903 2.664642029758159
3353 3353 1 0 12.207743030996527 3.0154600007498074 9.027552514030377
3354 3354 1 0 14.01794494220425 0.8660194608705363 12.160960589357959
3355 3355 1 0 5.8037163482396705 11.671018020417371 12.966871258475223
3356 3356 1 0 0.06203167620622242 9.437694760723051 9.738153517524573
3357 3357 1 0 12.663012524467645 6.853158128009299 10.336823755985835
3358 3358 1 0 10.63427095421556 9.449454253553053 12.698244786841698
3359 3359 1 0 10.27010113917047 6.710166785196068 12.824342491890938
3360 3360 1 0 7.475534030902617 10.222670820018488 4.055482749914313
3361 3361 1 0 5.140300959597271 4.534125701470284 12.135516299623168
3362 3362 1 0 10.617254305129231 8.631454123518886 12.044881911926508
3363 3363 1 0 4.978296789280834 1.077952288136104 0.08381912751402074
3364 3364 1 0 8.622889886706277 4.839888663799137 13.965628345959619
3365 3365 1 0 4.493079996227235 5.453171333932488 11.616130922932996
3366 3366 1 0 5.628268125696638 12.47112247873438 5.770278427340576
3367 3367 1 0 4.129685211734919 12.59779010287213 0.7359565100610032
3368 3368 1 0 13.890995677715086 8.315624878633319 1.046158723609203
3369 3369 1 0 1.609925030670256 7.01936134771541 0.503236731297449
3370 3370 1 0 0.5945995613099289 5.430467317011045 7.058097171607642
3371 3371 1 0 0.7703224126884457 3.034703699283249 9.277643163303681
3372 3372 1 0 11.853252825215412 13.320524472154608 3.057239960845597
3373 3373 1 0 7.395920025025225 8.600251134597782 1.7845399236074613
3374 3374 1 0 0.9649477228965482 9.795028546442008 13.482926913820148
3375 3375 1 0 8.216737533300392 11.415607773948505 3.0002739190757204
3376 3376 1 0 12.160444549437535 3.946761041788681 8.246886420997805
3377 3377 1 0 1.7069123829334252 13.078095192992903 10.213944707598856
3378 3378 1 0 2.0446492848028304 7.887140479645949 3.5540059933219905
3379 3379 1 0 10.285797534895968 13.283432595602635 12.240647758959138
3380 3380 1 0 7.18288855159055 4.873976528653074 4.159123082735913
3381 3381 1 0 9.10980590445327 1.4399580776573864 13.746840494059743
3382 3382 1 0 1.241956607215532 7.65764218758401 6.727344134338782
3383 3383 1 0 9.997858092874077 9.515523992745594 8.22472081209753
3384 3384 1 0 5.0988957591200155 9.827597246560492 9.964112621550461
3385 3385 1 0 7.145383817713881 6.86975229778817 4.277358593736631
3386 3386 1 0 8.382590956264698 5.98770187769175 2.2378640370393206
3387 3387 1 0 1.607467565352969 7.314121409143426 2.268658725305044
3388 3388 1 0 0.6753307702134367 6.396072880914564 1.5678900945671432
3389 3389 1 0 5.3726298889817095 3.962278808636922 10.657296314788947
3390 3390 1 0 2.052232634414137 1.9409579390610283 6.241422522750177
3391 3391 1 0 2.12522202582671 5.063587387520894 10.858874707418803
3392 3392 1 0 7.610593210694894 3.8257219301460914 14.041731603589037
3393 3393 1 0 10.062226739597078 3.039874370773185 6.994018224224737
3394 3394 1 0 4.313451522849518 5.8425812172835645 7.659555744229078
3395 3395 1 0 12.416981718371618 0.3924674829922619 13.177235016061587
3396 3396 1 0 10.539539426096578 7.2807417746915055 0.7078464019892123
3397 3397 1 0 13.365814323848285 3.727152333937972 8.92197768419703
3398 3398 1 0 11.613540435497653 2.2361154238014715 12.355280820898516
3399 3399 1 0 5.6261483091938 1.9435727420561413 10.867095652565638
3400 3400 1 0 10.252909512066463 6.334715245659638 12.241558938945914
3401 3401 1 0 5.085324168734591 8.126517382472095 8.842839318218218
3402 3402 1 0 7.9240007736223586 3.204192238164782 13.735322850596422
3403 3403 1 0 11.079233985255188 0.4397576827394295 9.7920874079445
3404 3404 1 0 7.0620747550626355 12.343231935430524 4.637844541747137
3405 3405 1 0 7.132269840770471 3.4351942063973326 4.011802888637017
3406 3406 1 0 9.422121430375613 8.025377245217449 11.6720393139438
3407 3407 1 0 10.289602745574271 11.026340062273333 2.3957567450866577
3408 3408 1 0 7.928555969292529 9.05090826076386 7.650440960760988
3409 3409 1 0 10.46257824117278 4.076359732341629 7.35050469790333
3410 3410 1 0 6.082697430677292 3.64553022849569 1.5647593799662658
3411 3411 1 0 12.462392820788626 7.0496447274176175 6.618560717340662
3412 3412 1 0 12.886818495417588 10.956245815802617 6.880723927782264
3413 3413 1 0 13.10022041017355 13.360401963377782 6.215425197961429
3414 3414 1 0 11.892522133124176 1.2198562073646078 10.983348504237116
3415 3415 1 0 4.137045161823397 5.268917688143108 10.833354963887029
3416 3416 1 0 1.8500533599907354 13.447882026004681 10.160427776499118
3417 3417 1 0 9.803632238809902 4.08648466182408 0.2449540368201154
3418 3418 1 0 4.812010684785936 9.33179856518636 7.637808177935311
3419 3419 1 0 5.208247012449743 12.977064109596906 11.71549783567871
3420 3420 1 0 2.5629226900751596 4.141546105869481 9.521017727565303
3421 3421 1 0 7.406399656286668 6.741226622351554 6.637605043707311
3422 3422 1 0 12.893374422635516 9.334458104531478 9.970384210377775
3423 3423 1 0 1.172346520713005 1.9060314891170365 1.7264379652480906
3424 3424 1 0 13.89330575636669 1.6269543792584484 10.15854126222479
3425 3425 1 0 11.768358264267226 4.226542651385676 0.8875542265522655
3426 3426 1 0 8.834302242211034 5.160502831127936 2.4707125978135904
3427 3427 1 0 11.091969906590698 8.210041327587808 0.5207053023526117
3428 3428 1 0 12.36113525187747 13.619413256837182 11.047287496544813
3429 3429 1 0 2.91617337670443 13.064571091599953 5.749571158537751
3430 3430 1 0 10.997924668637284 7.292360640478835 9.578396125776914
3431 3431 1 0 4.445552093540419 0.21605692570480906 3.5744408155484626
3432 3432 1 0 7.034086242929954 4.988297842828057 0.49700548231867775
3433 3433 1 0 10.930649826969105 6.342517471801638 5.869944173181256
3434 3434 1 0 11.157216373088541 5.881469065672693 5.618242320041456
3435 3435 1 0 10.69295934359898 11.02432745092182 9.10360613778896
3436 3436 1 0 10.176938001639233 12.759358118798025 4.380443104818675
3437 3437 1 0 7.100479252123643 9.218042878266596 1.860404295941427
3438 3438 1 0 7.116319321156756 7.375688086676504 13.757961186133446
3439 3439 1 0 13.150316349051641 5.9885971676669 4.181271238010282
3440 3440 1 0 11.805297895717251 5.106454394487715 2.863184437559168
3441 3441 1 0 5.799847396826509 12.971162946274442 10.255445838824933
3442 3442 1 0 5.421390018914267 4.750899500062209 7.734808569171396
3443 3443 1 0 13.329102135205073 11.533096501314006 4.476012916040932
3444 3444 1 0 8.984444784000376 7.899102050943086 0.6566268337667952
3445 3445 1 0 9.688628612531378 6.433798126112739 3.026437271756727
3446 3446 1 0 0.7230392570064702 1.9067588112483802 12.68992756039656
3447 3447 1 0 13.135569822216397 9.781672145310765 4.188821241945544
3448 3448 1 0 3.956667652464442 3.284696892081931 3.461795966760472
3449 3449 1 0 1.6148052667459873 9.081057803847665 3.1053254666489427
3450 3450 1 0 2.5831090167708157 2.9126706661938617 8.983496153854341
3451 3451 1 0 8.248232206913627 3.4924363067869657 6.625108494287683
3452 3452 1 0 10.301444969736774 4.380192734896726 13.402216198100763
3453 3453 1 0 4.548846886524368 12.573991387631942 2.84058015081795
3454 3454 1 0 10.954388607754511 2.2425718794958254 12.734345969102524
3455 3455 1 0 3.360361370697841 13.259456614480909 6.612387666250459
3456 3456 1 0 8.033309903041435 14.0032437329749 4.375491094731479
3457 3457 1 0 8.608497125148194 3.5996755847652797 11.047237855589877
3458 3458 1 0 12.933857756009308 0.9775713317662171 6.325808352644086
3459 3459 1 0 8.730747875953284 13.247559659702183 14.058816231883826
3460 3460 1 0 4.8941357570425525 12.37811714397243 10.441563937628544
3461 3461 1 0 7.198719710817749 3.5221115074497877 13.842058334027707
3462 3462 1 0 3.635044167200926 1.0801294065795695 1.3401840164662135
3463 3463 1 0 0.5621337007608354 5.861914088278875 11.939314930094325
3464 3464 1 0 4.244226681652211 5.696892264257436 6.664458723275932
3465 3465 1 0 5.862390044637849 4.003668757211561 11.674957746840768
3466 3466 1 0 9.223768067007535 13.151314481616867 2.980740105778752
3467 3467 1 0 9.984530569092103 3.46697820458756 11.147680956382242
3468 3468 1 0 8.455813947734422 6.693159268996738 7.781197696262779
3469 3469 1 0 4.737598716594445 11.814766648614006 6.136263615921505
3470 3470 1 0 12.266633730219043 10.865398303005033 2.31483318698788
3471 3471 1 0 12.650956128703767 6.159460458138537 7.656158695315402
3472 3472 1 0 2.972473009020362 11.19957488582821 12.242772019749687
3473 3473 1 0 11.437542227390852 4.279628487530044 8.894747750511728
3474 3474 1 0 4.682818378395721 8.58533034533852 11.335032896028729
3475 3475 1 0 5.278030947182476 5.999824255366858 11.802882459219976
3476 3476 1 0 3.6905790181981795 1.3801147622357395 1.3221462266509694
3477 3477 1 0 2.804680409427358 4.67706994701061 5.3247269942758555
3478 3478 1 0 1.3207501990845063 6.38254895218028 9.006232491971875
3479 3479 1 0 6.43100247030533 10.062446353336115 6.780796975600638
3480 3480 1 0 2.3256546976281554 13.81618226180169 13.722653343040996
3481 3481 1 0 9.816365220123624 4.823064835997583 2.0305227132686365
3482 3482 1 0 3.82633319169623 11.18120759798407 1.0821404761132554
3483 3483 1 0 3.1542925932217645 8.263318144934463 6.767501813950289
3484 3484 1 0 0.4660438887628375 8.779019091307047 3.927649119609208
3485 3485 1 0 8.00101143246236 13.246682613509325 10.037544077215342
3486 3486 1 0 9.772678222067313 14.042507865115063 12.365793950890904
3487 3487 1 0 2.203579543302496 6.0807839999843925 1.1490959701173085
3488 3488 1 0 13.124603396083716 2.86879043015993 11.682436902726579
3489 3489 1 0 12.116493188774644 8.129587447738365 6.278127422361187
3490 3490 1 0 0.7170624076449409 1.57864399542248 2.534065964717943
3491 3491 1 0 13.21264284992317 5.271994384617677 5.788435913981326
3492 3492 1 0 0.15625687279824674 13.17684801618612 9.114572499305826
3493 3493 1 0 10.671663111120143 9.960160340231 13.74354962898196
3494 3494 1 0 0.07311668390686679 8.364967241719922 0.19843275099720636
3495 3495 1 0 2.2608918610520283 1.789358344696563 10.320395203285019
3496 3496 1 0 6.390119751090049 7.678196252331955 12.606922430607703
3497 3497 1 0 0.7796900961882735 13.01070865762993 12.560143206726543
3498 3498 1 0 8.76495652344027 12.407844359907623 4.08356626412403
3499 3499 1 0 0.5036961154429218 13.55501759721831 5.370238835994668
3500 3500 1 0 11.94997462858078 8.308587026980206 10.772410343672641
3501 3501 1 0 3.4264133356853135 0.16842448527786208 1.498583275300511
3502 3502 1 0 8.549578350887568 7.715864424039825 5.7232066874729846
3503 3503 1 0 13.824952389835273 11.210368664907703 7.914562291505325
3504 3504 1 0 13.690843280355319 7.859776933785145 12.825205131420631
3505 3505 1 0 4.859890446922489 5.060884996500388 5.164564375039801
3506 3506 1 0 0.6971920799932191 11.909846992360022 1.3044588487195947
3507 3507 1 0 1.5785138274410777 11.683888259680112 13.91173957938283
3508 3508 1 0 3.8804787149580586 9.54834406420081 1.5100040670896036
3509 3509 1 0 7.130318078552349 1.9338832235069496 2.3125685322434206
3510 3510 1 0 9.302209219263013 8.864509324147543 2.122793117699554
3511 3511 1 0 3.89380525396548 2.058574845161664 7.48278857911125
3512 3512 1 0 1.1946715416673626 2.7235570026479694 5.941644180113775
3513 3513 1 0 12.565442788689353 12.539727190752105 2.1368433080428963
3514 3514 1 0 1.1774763851230505 7.5468416570938075 7.664773102046027
3515 3515 1 0 12.481166638490354 3.100482935553059 11.386396490906082
3516 3516 1 0 9.360942772096148 10.043990817306005 8.092513059001176
3517 3517 1 0 9.468093002620947 5.450989023301026 9.370549820901143
3518 3518 1 0 0.3133181930417659 10.842124071858137 13.053095853619462
3519 3519 1 0 5.372509247958949 8.00310115248463 11.384940394887098
3520 3520 1 0 2.7645122315502255 13.49541358164711 1.471509209901614
3521 3521 1 0 10.669253720644335 12.545800994215265 6.886118539055427
3522 3522 1 0 12.814782459639005 11.364981006569408 0.7523946294125663
3523 3523 1 0 7.34827610941027 9.43094331039972 5.559864636354374
3524 3524 1 0 12.216754406198733 0.7719379732552215 1.6046960063740636
3525 3525 1 0 10.994821278233236 13.00707192666173 7.291641943923718
3526 3526 1 0 11.204028396223139 1.0551540940037638 2.4447762702427283
3527 3527 1 0 6.063942866023723 13.452973421050732 5.154823543908063
3528 3528 1 0 13.869284884287696 3.2831874137602406 8.462196571833275
3529 3529 1 0 5.425760206765357 8.688748541318729 6.772871870189112
3530 3530 1 0 13.858004320934427 3.374157737314666 6.1795496098181255
3531 3531 1 0 1.2878956229310947 8.662315084255097 6.759075343088366
3532 3532 1 0 12.654690762637463 0.7386832653110758 0.7010871926947626
3533 3533 1 0 11.760089906291267 12.045039397951976 8.593427773125955
3534 3534 1 0 11.474809808562986 10.130904840227736 9.411250344740417
3535 3535 1 0 2.481284919421986 12.568857891313261 2.1334500175128706
3536 3536 1 0 10.618108972289278 12.182164187178206 13.4590252992504
3537 3537 1 0 5.592326203079924 8.988403107417561 3.1870391085522596
3538 3538 1 0 9.916497515825865 0.22045515014189282 1.7845504879886456
3539 3539 1 0 7.481882826745472 9.477015548388488 4.772440545915006
3540 3540 1 0 9.781117642101659 11.31315822221145 7.663204512043882
3541 3541 1 0 6.7772009724866775 6.753126136776145 6.026895210920026
3542 3542 1 0 6.988400038272001 3.5596959962983785 6.7722271366262845
3543 3543 1 0 11.328013458381179 8.588921540782835 2.892079087030165
3544 3544 1 0 11.675241246368135 1.5000415065206056 9.494009483369176
3545 3545 1 0 12.162511484157163 4.431184805989546 1.887177715068658
3546 3546 1 0 7.507990464672703 11.923920966387682 7.706111848600354
3547 3547 1 0 0.45943395806480264 9.072978905853596 12.251811651887754
3548 3548 1 0 8.614587879725885 7.83621176689885 6.621074918206184
3549 3549 1 0 12.93515415163712 12.67806585319495 10.240447052585575
3550 3550 1 0 11.46696676373575 11.121682725407638 5.099530764039125
3551 3551 1 0 6.552822343313729 7.39792547633723 9.498978039451622
3552 3552 1 0 0.5002394155182821 10.72138043033947 11.278253678930216
3553 3553 1 0 12.3410502768884 12.253681683350726 8.535176114522654
3554 3554 1 0 5.682149018424001 1.9577941040155553 5.835661588425292
3555 3555 1 0 6.910226176185752 13.546828436742029 11.588861185748316
3556 3556 1 0 6.081571711241905 4.395657819848712 12.706678409077805
3557 3557 1 0 5.982343511313102 8.043865168881263 3.3641090646244214
3558 3558 1 0 3.322764692854817 6.1800581733795354 2.6324900087428715
3559 3559 1 0 1.4435992857491877 5.73123400460325 11.398019081907755
3560 3560 1 0 11.724398994356097 13.447024830254065 0.44508247442560644
3561 3561 1 0 0.5808642800370352 7.465691631182018 5.519107678174486
3562 3562 1 0 12.508744777177197 9.875189735909219 0.688216912091698
3563 3563 1 0 9.279994052515537 0.333662243967156 14.039985875602671
3564 3564 1 0 9.940030040279792 6.072184426860623 5.288905183667544
3565 3565 1 0 3.669785999910774 13.934224420221318 0.5106220345671192
3566 3566 1 0 11.874665495158093 2.7109915496787274 4.630703791486348
3567 3567 1 0 10.308842046941958 10.20857105480996 1.4629004407977524
3568 3568 1 0 9.228427923767441 11.303624401112435 4.92489664514865
3569 3569 1 0 0.6633239831275348 4.872192760168311 0.5982538821930627
3570 3570 1 0 0.01971362047093011 13.003445548706194 3.421675194618788
3571 3571 1 0 9.349361761122417 1.6666268397574378 9.68584910995638
3572 3572 1 0 4.779682153182222 10.521021043538434 2.9073166139559348
3573 3573 1 0 10.473031526294559 9.819520264262598 10.6400407878484
3574 3574 1 0 8.3979817783627 9.175007858319097 0.7913069924384294
3575 3575 1 0 13.20703812932022 13.26710899396019 14.062766136022447
3576 3576 1 0 10.116541462136482 11.340617019949605 8.874702977298666
3577 3577 1 0 2.0083446230482753 1.7830869882716074 12.321316232025543
3578 3578 1 0 4.475511883305769 9.456829889918357 9.790840764671115
3579 3579 1 0 3.110268407838762 10.432917295025916 7.881680650334311
3580 3580 1 0 10.067833262297253 3.0467041688194247 4.631003688209317
3581 3581 1 0 6.105198417873594 12.120530310796756 2.0970104106803267
3582 3582 1 0 11.207353920775935 3.6071720433522434 11.276169849889454
3583 3583 1 0 4.167135869633592 8.27499634957569 2.803331929251942
3584 3584 1 0 9.000381934378026 12.89516435400763 9.718586641697549
3585 3585 1 0 10.810936657563285 10.648315922021288 13.342625756469038
3586 3586 1 0 8.321035754230195 12.425251918315 10.120233398481444
3587 3587 1 0 13.186379201699248 0.6921296678430756 7.1958819853803835
3588 3588 1 0 10.212762799259334 2.289255021909223 12.39739100229657
3589 3589 1 0 13.723861575650192 1.1934384899576773 5.592177787754987
3590 3590 1 0 6.625193344093247 5.446928085532741 7.386353277680055
3591 3591 1 0 2.5513694411800723 0.5975250516082554 1.1513985686800239
3592 3592 1 0 6.955414071680274 13.39543583450508 10.196668116599337
3593 3593 1 0 0.1312673139084643 12.186351018904105 0.12737924537570708
3594 3594 1 0 2.857747237758688 9.840028052368309 2.088922618988196
3595 3595 1 0 3.4110693163771084 2.766499891666447 1.274296803748452
3596 3596 1 0 13.002014569035959 3.395684817645209 1.5154055879992383
3597 3597 1 0 2.0297433273684287 8.064488971785272 6.434008340364795
3598 3598 1 0 1.124971590212416 4.302014490345555 9.62402521791886
3599 3599 1 0 0.15595819282138054 2.261146693504907 11.779427511349795
3600 3600 1 0 11.065145721514423 9.775946556979765 12.67461881404281
3601 3601 1 0 7.8380574134132495 5.460130281572977 0.9469780902027464
3602 3602 1 0 9.309517012264987 7.293903631886367 1.9285539367516504
3603 3603 1 0 13.508090708716109 13.771959196219346 3.0538690024730264
3604 3604 1 0 0.02738158343747104 0.7355758929109474 6.958035892025549
3605 3605 1 0 0.7080130688457902 1.1224289919012618 6.443446936496829
3606 3606 1 0 9.516888690862741 9.509541825799365 8.11942645107314
3607 3607 1 0 2.7287115964188837 13.695627175649808 3.3028460880039088
3608 3608 1 0 10.70573223576402 9.098848349079397 2.7002744956038494
3609 3609 1 0 2.797932938813561 8.024196571260108 3.6788809267637923
3610 3610 1 0 0.2000492010914259 3.3229501111750146 4.911823186484992
3611 3611 1 0 8.098902489956762 5.407225804543972 7.525315191566522
3612 3612 1 0 8.703324629054567 11.714530321431075 4.59656179957346
3613 3613 1 0 13.517389858123382 1.6416275416329953 1.9446322591050753
3614 3614 1 0 8.099778120662387 9.036785365098826 0.4914869508312947
3615 3615 1 0 3.621816635426475 4.13926915197392 9.509560046986222
3616 3616 1 0 10.266711202480215 12.188806004843975 7.4801963948184715
3617 3617 1 0 11.388041620647893 8.00964452151162 4.573617865842047
3618 3618 1 0 13.614143469431184 9.580745431122999 13.696372235621034
3619 3619 1 0 10.479553869611689 3.1456031830029296 10.997474294976788
3620 3620 1 0 6.4820804262673635 6.31911413868064 5.108746153799529
3621 3621 1 0 6.63634193484448 6.748920918791066 11.217289830396256
3622 3622 1 0 6.958230365162971 8.54379046842356 8.417475898589686
3623 3623 1 0 12.50196254402082 3.2910033503761973 0.15249773977659933
3624 3624 1 0 3.5317824445420403 10.222488243546247 8.148708420514607
3625 3625 1 0 4.083482685902314 10.706192636526442 0.2328357868952252
3626 3626 1 0 7.772026932340551 11.839979908752913 1.9382249923270949
3627 3627 1 0 7.306656351785805 2.344530823903042 0.9249613019040265
3628 3628 1 0 8.044413199190407 5.147356834255916 4.153979636712143
3629 3629 1 0 10.914060018913611 5.77040082325156 0.6137565113823024
3630 3630 1 0 0.019090879696789402 11.060123644776114 5.643124518091776
3631 3631 1 0 4.271132620950399 11.893734301285097 1.6579473018945095
3632 3632 1 0 5.786426467602806 13.998141447635028 2.08017378213026
3633 3633 1 0 2.6856742339017443 6.442717421434354 10.023202429184163
3634 3634 1 0 5.4435447464041005 10.853742884340196 13.056887501526614
3635 3635 1 0 10.478459527919325 5.897050421462682 6.72613123089895
3636 3636 1 0 0.7418024844143833 7.331037804539843 13.632938403404278
3637 3637 1 0 0.838727296240754 7.36380488789912 3.6151570410443417
3638 3638 1 0 13.717831087444333 8.819157882542699 13.028038801939672
3639 3639 1 0 12.014416855110694 6.310964043618752 7.446524528417307
3640 3640 1 0 1.0973950306932452 11.724412662610938 5.385843068796197
3641 3641 1 0 4.366683014918205 11.067895518415583 3.691614681392766
3642 3642 1 0 3.2271752229695694 7.078350214317578 2.84806101619028
3643 3643 1 0 8.989195789069468 0.9417196712546564 6.265030530739423
3644 3644 1 0 12.844978441377279 0.33996176725998384 7.914326298352162
3645 3645 1 0 12.210195633329995 5.933032420770736 1.837500210691873
3646 3646 1 0 10.475294229427506 4.069602972296135 6.339175842695237
3647 3647 1 0 12.578962772562651 1.828528059001185 12.457392173019931
3648 3648 1 0 11.862066727613893 2.4067971224972085 6.33488091410746
3649 3649 1 0 13.222047013725458 2.68418512230531 6.481937712273128
3650 3650 1 0 12.365290073874824 13.804968384961844 11.182512205340164
3651 3651 1 0 1.2345994602044632 11.449787684148886 3.6478944471419434
3652 3652 1 0 13.608916532993602 1.9394704388915054 2.133768313518101
3653 3653 1 0 2.442755925146149 9.528213759842705 4.355457099873417
3654 3654 1 0 13.481876822697433 9.974970367454473 8.536438652406893
3655 3655 1 0 4.493310165362144 2.2855964619597744 8.644289507096804
3656 3656 1 0 9.713644096761003 11.252155362166167 6.666196686031753
3657 3657 1 0 8.926365572642787 8.786442041618672 10.288767986201812
3658 3658 1 0 9.240206566438667 2.397592075629534 7.910850694440452
3659 3659 1 0 0.87826995736964 0.9122917003788804 13.766170454395528
3660 3660 1 0 0.5954215215644943 6.809027747141833 7.712185633093373
3661 3661 1 0 7.385940158115292 10.134669706790344 8.482257469463384
3662 3662 1 0 10.950946063292283 3.047615017258489 11.58473478722491
3663 3663 1 0 13.271775642148846 12.426060939246401 1.6757869190561172
3664 3664 1 0 10.687876866851923 9.87198354240486 3.8731147260836023
3665 3665 1 0 5.346511835939583 0.49360045977267014 13.580973316529695
3666 3666 1 0 2.12206787159262 10.728879253740713 10.948929220399448
3667 3667 1 0 2.0614771120136894 12.363435399411623 13.407528153762321
3668 3668 1 0 12.34337024550086 11.003358570788466 10.79599386421271
3669 3669 1 0 8.801117874841538 7.565030895761192 9.761308864295788
3670 3670 1 0 4.633463051191268 6.791159510478559 10.557481983343994
3671 3671 1 0 2.1303306297817524 12.67470742705717 3.911839512862224
3672 3672 1 0 4.949903131893252 2.5437277428740592 4.22112760100388
3673 3673 1 0 13.656340064563878 10.697720996129798 9.890265641272332
3674 3674 1 0 1.1755875431110268 4.471193597344995 6.435278804279965
3675 3675 1 0 13.200692007384754 11.205278395284035 12.94811500424065
3676 3676 1 0 2.032844341603075 10.709967820241706 10.284018434399496
3677 3677 1 0 12.200624244697625 9.851107474428778 4.719901333377512
3678 3678 1 0 4.1754482474089984 0.22132412181671893 13.33841612187863
3679 3679 1 0 13.426736974534787 13.806220814912765 10.970521772857948
3680 3680 1 0 5.179908045093284 0.37434192742491335 2.452903599150543
3681 3681 1 0 1.307527425351603 8.163667166148894 2.0333938794563613
3682 3682 1 0 4.6932936354314005 9.080529007652192 5.582676980862881
3683 3683 1 0 10.08322875208731 9.720709369775221 11.473862007402813
3684 3684 1 0 5.7710409664416815 2.9072248217694483 4.532495979787758
3685 3685 1 0 0.9693904616832801 1.9098504141116601 0.0826700132014855
3686 3686 1 0 6.023090022084441 5.551115893393636 9.230623337138605
3687 3687 1 0 3.9651638602397976 0.28747224340558014 8.188507486881766
3688 3688 1 0 2.7431590852925436 12.266159319808736 10.530626375742871
3689 3689 1 0 12.788103096196078 7.815625092580151 7.396939814136081
3690 3690 1 0 13.609722015811995 7.553713806023908 9.735280952471403
3691 3691 1 0 6.256879011676215 8.639387092206572 10.063317897941797
3692 3692 1 0 5.051881599885341 5.956597747759043 1.9344144548948865
3693 3693 1 0 5.404200092159458 3.4652803569433086 2.3653518350653546
3694 3694 1 0 8.950616491864528 9.958029283895142 1.3964558651512005
3695 3695 1 0 0.6522585542270734 5.736331897838603 13.109554363166035
3696 3696 1 0 9.688832162037123 6.912998681646779 12.100846637837876
3697 3697 1 0 7.227807444007135 8.220649469289416 8.406516576313827
3698 3698 1 0 12.394389384620576 6.841872183275756 3.3065686677172033
3699 3699 1 0 8.347799387890504 5.048579729309783 0.05555967149256244
3700 3700 1 0 11.4680627882418 3.191298837586265 6.300751858471846
3701 3701 1 0 3.6956111141816184 13.529757778886843 1.1686620419764338
3702 3702 1 0 3.9944370040826183 0.03588219712878678 10.154341685304418
3703 3703 1 0 12.362166524928018 4.942352919926546 10.876938385823935
3704 3704 1 0 4.774197620432874 0.7215706492714229 11.116489954202004
3705 3705 1 0 1.7026604027622432 13.979428333268242 9.22053913961157
3706 3706 1 0 5.448486980219752 6.344783551942424 6.922319975433625
3707 3707 1 0 8.516736014632103 7.2827581593622375 8.549000259380918
3708 3708 1 0 5.812989511515932 13.927708011063899 8.71622838171477
3709 3709 1 0 3.935452101594062 3.449095110398025 13.868550018492302
3710 3710 1 0 7.798901490621895 9.683324629135274 9.693666536523956
3711 3711 1 0 11.840237824244312 5.582721697856736 10.845008222172401
3712 3712 1 0 10.659370505353088 1.9931587673028388 3.9067647986600917
3713 3713 1 0 9.441038037846067 6.04038612523516 0.06844069575135298
3714 3714 1 0 2.0883112804833934 4.137618664882498 2.0255498182286074
3715 3715 1 0 8.730668994332252 7.618101787772243 8.738911771315212
3716 3716 1 0 10.979622620727493 7.103032003895982 2.9333640870579254
3717 3717 1 0 6.383522133939053 10.280566132769009 0.6968935914804517
3718 3718 1 0 9.787098235735561 10.373929467835575 13.582847818648903
3719 3719 1 0 5.5322839040373015 5.315614216995757 8.605751479895144
3720 3720 1 0 4.031059320089997 7.928739504584639 4.770115121704989
3721 3721 1 0 12.443835918827785 6.589371447158281 12.62625812328229
3722 3722 1 0 10.272262607743727 3.4806469891887715 3.8120661254932227
3723 3723 1 0 12.675050839595187 13.901014715953064 11.452412485407926
3724 3724 1 0 8.166353353187226 3.2243432049994043 9.867453303517193
3725 3725 1 0 6.5249644059021 11.200341315996207 10.868043732930728
3726 3726 1 0 1.3768658528681625 12.251324229707555 8.834173258110868
3727 3727 1 0 3.3347652845754556 1.3648260088771758 13.564885492120686
3728 3728 1 0 9.173901683538817 13.548900260234383 4.133122389358094
3729 3729 1 0 1.0946938655693839 1.5488989319415551 3.3396700839101543
3730 3730 1 0 3.6413162957928202 5.789626128448399 9.559358739353234
3731 3731 1 0 8.055445384983225 0.13554075768957144 2.9393993202964457
3732 3732 1 0 14.017114626059989 2.545832586539167 1.2829922625710832
3733 3733 1 0 1.6943927963055423 3.6916858657551104 13.035275477673482
3734 3734 1 0 3.5102137194468006 1.0964798940465863 9.222751630695202
3735 3735 1 0 12.290721206623553 11.293860674850878 13.36857834283472
3736 3736 1 0 9.35311681815428 7.4840229918327825 13.301625608059702
3737 3737 1 0 2.2110584072378883 4.651041858355005 13.906541399015783
3738 3738 1 0 1.405040630535297 1.9101817444414897 2.269280534400926
3739 3739 1 0 5.087425921430494 11.794505488211751 11.77698871916132
3740 3740 1 0 10.382446741880413 2.9461206778422153 13.479134887024065
3741 3741 1 0 2.3263001859604935 12.566580762954882 7.530337885975413
3742 3742 1 0 12.144302799836572 4.093304888966535 3.06909120164613
3743 3743 1 0 2.7645568797833904 6.261620115436398 7.378434657051266
3744 3744 1 0 4.0253698272513825 7.2702229061614325 0.35768088520794167
3745 3745 1 0 0.9614436448899789 4.39136958900071 3.840661051655633
3746 3746 1 0 6.223748050077002 11.154569134969961 12.403085330419499
3747 3747 1 0 12.514292749455448 7.41583807626367 2.459342485579208
3748 3748 1 0 11.311478073895602 2.3600491372526564 14.005601756961095
3749 3749 1 0 0.3598312959035433 9.408604929705321 3.2641216320372037
3750 3750 1 0 9.161820635379994 11.366177848511759 4.714432278237695
3751 3751 1 0 10.114199015045166 13.44755673025177 5.09953276898844
3752 3752 1 0 6.287674601200993 4.6775726479657855 6.716271737752199
3753 3753 1 0 9.525203246439531 9.208546048075279 0.22823666804592938
3754 3754 1 0 8.31724030364483 2.1095074614888554 13.329922635051235
3755 3755 1 0 2.201533075881821 13.201363473451693 13.860446236391137
3756 3756 1 0 12.089156676305011 4.410824676454626 11.582539678615902
3757 3757 1 0 10.34817414469183 11.168421963667855 6.180941209882513
3758 3758 1 0 2.8031095636427046 8.817605483846297 13.478019656041754
3759 3759 1 0 10.449738870076485 2.271481473052193 9.016017126518257
3760 3760 1 0 12.786686002993523 13.854759551298 1.7466369870747362
3761 3761 1 0 0.20209532716115294 1.3632820670362975 10.182003155570428
3762 3762 1 0 8.745155065617606 4.630612360114462 7.2002916920218185
3763 3763 1 0 11.206363374176318 8.629756837376595 0.7080895383723613
3764 3764 1 0 8.407732682359459 1.8961085455079307 7.57447685781302
3765 3765 1 0 10.302008019464942 13.437345617684734 8.403228711214284
3766 3766 1 0 10.207714477510475 6.928512748457541 7.022899911695903
3767 3767 1 0 9.786473102365694 0.809690308515745 12.105887681108948
3768 3768 1 0 0.31746827187555 3.897641759416897 7.534782217743152
3769 3769 1 0 11.478303535309077 6.3469124519984454 2.977821503324762
3770 3770 1 0 9.008092625631926 2.6891427873833496 4.896878131806134
3771 3771 1 0 3.3320697601701603 1.0910152597379486 8.07730045962298
3772 3772 1 0 7.891648455266342 4.371847290758027 0.3711250176471341
3773 3773 1 0 4.183279904910401 1.8121148491222594 4.7453924505970075
3774 3774 1 0 6.837838194420113 6.578364283362608 1.4070100976833475
3775 3775 1 0 5.841984046765827 3.961709084808926 1.7416466293030075
3776 3776 1 0 11.370267112413842 11.185366217145328 13.26395151011742
3777 3777 1 0 0.06367965865930379 12.705046875475656 0.9305373497534937
3778 3778 1 0 5.431518423689463 11.18074632236804 10.123498519078392
3779 3779 1 0 4.09671175846632 1.0116605538139842 7.212625547548273
3780 3780 1 0 11.946962727942745 13.702252968079403 13.272863183361244
3781 3781 1 0 9.374597119830593 3.5223758891031696 0.5962602009516252
3782 3782 1 0 2.228693526394222 7.224828307546118 14.001185968926643
3783 3783 1 0 11.943734057532419 4.926251756505473 1.3367693671897054
3784 3784 1 0 8.688031017975337 7.095030426274541 4.682685618993776
3785 3785 1 0 0.5213925290240448 12.35021498727224 6.8310316990265445
3786 3786 1 0 5.098748276608064 5.577616671990671 4.239674224917169
3787 3787 1 0 7.213145877397383 12.574687192034363 3.581781979755314
3788 3788 1 0 5.4161419230412005 4.376661613571565 9.664862134027645
3789 3789 1 0 2.804526496456607 0.4859646020276016 12.209637075389463
3790 3790 1 0 0.2307936278395072 9.199348297428882 10.198936382807615
3791 3791 1 0 3.0134176631189864 11.246577595828382 13.890446085862605
3792 3792 1 0 12.393004333550394 11.057589908462498 7.63672572099024
3793 3793 1 0 5.985300410672793 0.4787631924366345 3.2387926180890974
3794 3794 1 0 8.189906872587137 6.783878354474701 2.824349433747548
3795 3795 1 0 10.757835927872462 13.28613604707242 11.292906811888306
3796 3796 1 0 2.1573661528871595 13.563877908075993 2.742215358191852
3797 3797 1 0 4.698207934902528 2.2858262748779166 11.678345287746701
3798 3798 1 0 1.0088501389448932 7.358217698338154 2.5118904688932804
3799 3799 1 0 11.570559705425964 9.617549250326862 12.843327226700774
3800 3800 1 0 12.293082368809596 4.326237278881938 10.853828986968711
3801 3801 1 0 7.846600149480595 2.412398866207397 6.61881291208112
3802 3802 1 0 2.4185243351877914 10.821274258493228 8.116775228468418
3803 3803 1 0 0.4953115671946198 10.825895084086373 5.51800147249115
3804 3804 1 0 9.290777005123035 10.31482416297982 8.65529986590386
3805 3805 1 0 6.7618949592123245 10.55863492013736 2.3399378743536072
3806 3806 1 0 6.058726399910041 0.8043180008904522 9.382992217322432
3807 3807 1 0 5.869723823413433 9.857952243081424 3.214098892267173
3808 3808 1 0 2.1201527819801096 7.452859554640256 1.0862767241166689
3809 3809 1 0 7.642084490596093 12.26661732336929 1.3660152221417163
3810 3810 1 0 4.4624004366430645 1.2983627792996923 13.07700375474478
3811 3811 1 0 7.106079681943191 4.9702282635655735 4.700291653886984
3812 3812 1 0 12.698754509800386 3.5992587964198757 7.875772467849648
3813 3813 1 0 5.011740483537879 11.015671434663801 4.39012672746574
3814 3814 1 0 6.85568554945039 10.86160181257628 2.0441109136910685
3815 3815 1 0 2.978784470050671 2.533624277827343 11.110919755531404
3816 3816 1 0 9.275267455651687 0.09055286966659178 8.260048587427663
3817 3817 1 0 7.07149727092236 5.910583958749496 6.372210816545827
3818 3818 1 0 11.455232579264926 6.45311817417646 10.066909004477463
3819 3819 1 0 2.021117984485587 5.078580875560214 9.064981247124827
3820 3820 1 0 9.500687295272105 0.3536053069144124 5.211235047478798
3821 3821 1 0 10.393892234592455 4.778885677862803 3.9420414455040467
3822 3822 1 0 11.599326450766478 6.265964573924394 9.563444067547579
3823 3823 1 0 5.3748293459038345 12.08594211592935 3.158650235968109
3824 3824 1 0 7.6132071186673125 5.867050210195687 11.22540156113864
3825 3825 1 0 9.491647416427536 10.53101945361473 2.4753717264765007
3826 3826 1 0 11.79424519066877 3.6930308394337334 1.6280760272210453
3827 3827 1 0 10.067232058315748 5.710073446149481 10.720587741163936
3828 3828 1 0 12.179167294218313 11.913282263966376 1.1331321691832947
3829 3829 1 0 6.174835508354422 11.690060130994564 9.064102395755647
3830 3830 1 0 6.341149379852275 8.534242436575179 9.914385019492183
3831 3831 1 0 1.7458293845779633 5.4455816602075044 8.142287380182227
3832 3832 1 0 0.41098096819508734 5.921872130026778 6.598538277794758
3833 3833 1 0 12.416122207563582 1.495381982912873 5.2321071776284
3834 3834 1 0 12.65403821281902 13.025579628222244 0.15427073394697371
3835 3835 1 0 5.000538647895849 3.6049871844496777 2.2775450386370792
3836 3836 1 0 5.388598287676862 7.1818578525627155 6.763428391331999
3837 3837 1 0 0.32071389169979625 3.7736931536146248 8.294721675904995
3838 3838 1 0 13.91894938240988 0.3471519781479359 6.3458689709027585
3839 3839 1 0 13.607280594144525 10.166097456806797 0.3711558441139642
3840 3840 1 0 13.138847989055288 10.275998528538679 9.269139241448016
3841 3841 1 0 3.6208521566256713 1.8472905610225183 4.645285861620255
3842 3842 1 0 0.901791720544178 2.984758235767609 3.2231096446651106
3843 3843 1 0 5.240939216890145 13.043415976592877 12.22179351221677
3844 3844 1 0 7.936533805974577 2.532838818758101 1.9027935505846625
3845 3845 1 0 8.452481107826795 10.523318976131195 2.942559084491786
3846 3846 1 0 11.008026681108651 12.806406041471794 9.601993345372968
3847 3847 1 0 5.542260598263404 1.2732522533401718 2.8837635119459537
3848 3848 1 0 7.303557496888528 6.010565995620884 9.588165717142918
3849 3849 1 0 2.1761958397143952 6.157114059686576 6.528709334930392
3850 3850 1 0 6.623004651150578 3.048994830041407 7.957259678262852
3851 3851 1 0 6.098280795000808 11.039208751327303 0.23228299988899015
3852 3852 1 0 8.922471090261265 4.900004859789223 9.8905204937886
3853 3853 1 0 4.674223931354201 13.750094581453611 4.4440812012446145
3854 3854 1 0 0.5702647272172872 3.336960155097217 5.4382258647847195
3855 3855 1 0 2.4258253057965993 6.363308033379847 1.8568025037634608
3856 3856 1 0 5.966802862303507 4.024136894926668 9.428874557337288
3857 3857 1 0 11.94945102164975 11.719850602380433 1.532864326707525
3858 3858 1 0 10.92988691768658 9.584931939269302 12.213056196495055
3859 3859 1 0 4.641079838092803 1.4742004052437883 12.391451299272541
3860 3860 1 0 1.7703013525620486 1.958372885045147 13.737656461750401
3861 3861 1 0 3.5036689356124935 1.9098359236258493 4.915634663452261
3862 3862 1 0 6.412835259160185 3.3450559464039955 2.594211240894098
3863 3863 1 0 3.52652233225836 10.62076599134134 12.67933808686163
3864 3864 1 0 11.002065520621278 2.229292658783434 8.157181064525398
3865 3865 1 0 7.732106913240631 10.772953124396464 0.8875769940099377
3866 3866 1 0 13.718777893543223 14.005221954885979 12.496960710383519
3867 3867 1 0 1.170258171309833 8.756301134248748 4.886079922507658
3868 3868 1 0 4.5894803734048475 1.6303364908544506 10.907400201170026
3869 3869 1 0 5.838466643794285 3.1033814484430753 8.321481062817146
3870 3870 1 0 11.722601215626243 7.0249681369822845 10.932107254428157
3871 3871 1 0 6.348428642285792 13.916814270719653 12.249979087674172
3872 3872 1 0 10.826777103581653 0.8759810632049377 4.210590697786912
3873 3873 1 0 1.6545746023935206 3.5469989611179256 13.358679676931997
3874 3874 1 0 0.5475820479977844 10.43015254569754 11.862684913949606
3875 3875 1 0 12.107224790468926 9.162217088452119 10.120996139600285
3876 3876 1 0 3.129887668751369 11.021057657471317 6.295651991240502
3877 3877 1 0 11.458935415178967 1.8536246145599076 12.988711916685329
3878 3878 1 0 5.992950787704963 8.703246363275348 2.935494780623637
3879 3879 1 0 4.607210817968363 0.6015717282238624 4.846162320227928
3880 3880 1 0 9.028144156040806 9.207369208996214 6.801704317853973
3881 3881 1 0 13.501639220222884 13.133746198383744 2.5100225982887814
3882 3882 1 0 4.2527816385584565 10.435258136332711 8.523288294935723
3883 3883 1 0 3.69512204574971 5.801982278898813 0.4514021038330869
3884 3884 1 0 2.2856778253587664 12.993562902801155 9.487840239129989
3885 3885 1 0 13.837898074232992 12.76426860890448 9.949233171173645
3886 3886 1 0 0.8345742737711052 0.5821633556153728 5.358855242836376
3887 3887 1 0 10.473803898351825 1.5930110850317007 2.565994736074802
3888 3888 1 0 8.768836891719646 5.610361262882131 1.6888591094918903
3889 3889 1 0 1.4426615103135825 5.634694891477705 12.7622425095895
3890 3890 1 0 14.035550406882436 3.275011781917555 8.016642074148164
3891 3891 1 0 7.474265403031506 5.787399997123957 6.868165017203373
3892 3892 1 0 6.119099496488488 1.4841383318466534 11.368940142870748
3893 3893 1 0 9.84704635690234 10.461799842173654 8.27461019972227
3894 3894 1 0 10.142149266023853 7.016995872718868 4.652285351904267
3895 3895 1 0 8.526121126538497 10.073175790261867 0.9342136352113655
3896 3896 1 0 4.829560212535751 0.6392695746096625 1.694129875979455
3897 3897 1 0 1.560609733156428 7.03988475888175 7.74934188723868
3898 3898 1 0 11.753569835079572 13.404992032259551 2.055847776099836
3899 3899 1 0 5.149121256653433 4.127923074605638 5.085589803743466
3900 3900 1 0 11.520032919717554 11.945598837094733 8.332143617081957
3901 3901 1 0 0.7548708201395645 2.139068090904623 13.881051585546839
3902 3902 1 0 2.257521678945556 4.850527545378117 2.486472043209924
3903 3903 1 0 0.04763539115491648 5.913317227486253 11.255477707184825
3904 3904 1 0 0.42248942866030686 2.7602405403581156 6.224268655499538
3905 3905 1 0 4.4368383632178885 3.4910888927179373 5.091199069681847
3906 3906 1 0 7.347607431089078 1.2159389472240385 3.6440674779098683
3907 3907 1 0 4.6281774729763985 13.561287201501973 2.3581163037985666
3908 3908 1 0 13.85737771406602 10.053631078675812 1.4167865250227207
3909 3909 1 0 2.5358141787722412 8.051983855414994 2.4799571275161583
3910 3910 1 0 1.9101298649531973 12.293674010171904 7.053392375648228
3911 3911 1 0 6.898242285972962 10.976213138683212 1.444838897656587
3912 3912 1 0 12.461859901788833 6.574284816030722 9.785839005760145
3913 3913 1 0 1.6770344570118307 4.319379922541156 6.616499703877809
3914 3914 1 0 4.154660058446665 11.63120701241071 12.976296929167075
3915 3915 1 0 1.5759035053835095 10.0612094065954 5.7086929620243065
3916 3916 1 0 10.376641562378001 11.190972273213188 7.874173837563522
3917 3917 1 0 7.711912346472003 10.677852122179507 9.311822929262657
3918 3918 1 0 2.2370368050201597 2.386522993855818 9.102994164330104
3919 3919 1 0 4.325956776421708 6.531466507213578 2.7576197306873382
3920 3920 1 0 9.388286499120508 10.775500142357613 3.520955635798546
3921 3921 1 0 0.5545675884770875 2.151852903724323 2.0918263948045612
3922 3922 1 0 0.622117251319862 11.941474862138007 4.594638898023656
3923 3923 1 0 8.921275190817461 1.0018137961637203 12.771418105129127
3924 3924 1 0 6.427630515782681 9.999242725345596 9.655077248839866
3925 3925 1 0 10.36741631862117 7.421032053803437 2.94247205333868
3926 3926 1 0 8.044101343652812 9.345111440429074 7.810284680791339
3927 3927 1 0 7.316461535504769 11.790555675564582 8.923002840600935
3928 3928 1 0 2.9201877928133424 13.163880624313974 13.883921601021862
3929 3929 1 0 7.496208338095922 9.561859025490252 9.10713962310025
3930 3930 1 0 8.25842755714017 0.8729693047509012 13.034118037228883
3931 3931 1 0 0.6935913400759597 3.5461761850268245 0.03727540671352292
3932 3932 1 0 10.903821712453334 7.815740483824507 5.285445363802555
3933 3933 1 0 11.011095947615436 12.319824972029188 8.231963882085584
3934 3934 1 0 2.4167595418358925 12.030931936704322 1.0373109188907748
3935 3935 1 0 3.0358973911844025 3.090755876913225 4.284612865943978
3936 3936 1 0 11.936962935350854 6.788085817623078 3.047317733464089
3937 3937 1 0 7.821730622172542 3.8435091101264836 4.756314693259955
3938 3938 1 0 0.4988041342755118 4.171476402831202 11.708171637441215
3939 3939 1 0 9.137810525469455 13.140269964003583 7.867687012766348
3940 3940 1 0 10.567278562269648 5.450064848663545 1.8850710587435255
3941 3941 1 0 12.745216424589833 3.679400081123811 11.74222400295765
3942 3942 1 0 3.886904043826687 11.075167780230466 12.69900656973421
3943 3943 1 0 13.190171138800768 6.01512512324439 4.579476544823709
3944 3944 1 0 4.51692833589272 6.356721680704449 13.71337693093237
3945 3945 1 0 10.103899830366545 2.171153081143752 10.352016545469459
3946 3946 1 0 9.397568516954001 8.131623385195306 7.516998511583411
3947 3947 1 0 13.21962830444899 3.037364429457643 8.834236457883485
3948 3948 1 0 9.812230761682617 1.3920378608180162 0.9443558598164435
3949 3949 1 0 3.4209388541005885 0.19375719754532053 8.452175135117836
3950 3950 1 0 4.153484079109032 12.755419658051059 11.612670965734921
3951 3951 1 0 5.622369816674726 10.613031001519094 1.781737610172754
3952 3952 1 0 8.89485445252066 14.011277158043034 2.990854438358112
3953 3953 1 0 1.4240823001071288 2.897476606005818 8.45685317803563
3954 3954 1 0 11.774983168544734 4.421115874776627 13.58464043997045
3955 3955 1 0 2.4564219999051833 10.524378140610638 3.48254612948984
3956 3956 1 0 0.9696615716392496 9.14975742359777 9.317010198646669
3957 3957 1 0 13.121914065072271 11.781242158756092 4.235310112476486
3958 3958 1 0 3.1648885982299073 3.4360414201098792 9.770452905108431
3959 3959 1 0 2.8201337936519764 2.844109685381541 11.33885888266031
3960 3960 1 0 12.006909798512138 11.867938796326738 8.862778462305204
3961 3961 1 0 1.566478453607453 0.08862986763337405 3.375608803316442
3962 3962 1 0 12.136767404492474 3.8297504739790593 0.014732657605175144
3963 3963 1 0 0.3703890201501747 5.035030430597519 7.779884796624657
3964 3964 1 0 2.196474246543084 9.591334479882587 1.0191131621896874
3965 3965 1 0 2.333396369217657 1.2099835057580077 4.421676722806987
3966 3966 1 0 1.5737647380963473 10.761201842635284 9.820637879925146
3967 3967 1 0 13.498809970620105 2.3256103068488283 12.472306979673922
3968 3968 1 0 6.049688018566009 3.0126614264594824 8.17870296215186
3969 3969 1 0 12.94172918373616 2.0699838049045134 1.6250301070234294
3970 3970 1 0 6.088815718363886 9.31754219791709 9.634112623306956
3971 3971 1 0 1.6293075240744042 10.9559930302873 10.824693560579336
3972 3972 1 0 5.517999081195773 11.205071747252914 8.127333765477143
3973 3973 1 0 9.195338562025082 6.629726054092542 13.827384296230798
3974 3974 1 0 4.609928943551777 10.551999768983137 2.323300662649819
3975 3975 1 0 8.926516606644682 1.8837856803188335 12.79331717847218
3976 3976 1 0 7.019253261298191 13.699982985727218 7.145419076009612
3977 3977 1 0 5.095756652376546 4.498530758081893 8.191746672385422
3978 3978 1 0 5.516992493251703 7.915304659234586 10.956408065679467
3979 3979 1 0 13.806570432739997 8.202344322446512 11.866237926867711
3980 3980 1 0 0.9310077744949301 4.677685503622781 1.189513843418934
3981 3981 1 0 11.60784456535521 2.0571448609319485 11.492111437079156
3982 3982 1 0 0.46225854221440876 11.822838654792605 11.947233514632352
3983 3983 1 0 9.614724832068847 8.211387380349512 11.877818138064374
3984 3984 1 0 6.584461302052115 4.970495823541716 1.036485965576585
3985 3985 1 0 12.724444453043727 4.797571952406636 13.301197860465898
3986 3986 1 0 5.109648141343992 13.682308403317553 11.217131071496176
3987 3987 1 0 5.1352012341786715 10.066745138494733 4.558285879943551
3988 3988 1 0 12.587852472844892 1.4272131452231238 6.624640256770513
3989 3989 1 0 7.627649215542888 5.200515450114868 5.957024032260978
3990 3990 1 0 1.1778279627952857 7.557378621621944 13.541349217773272
3991 3991 1 0 1.5854269683149202 8.023168526318068 1.3840761830366786
3992 3992 1 0 2.3604924036309116 13.767731690387293 10.852806279260776
3993 3993 1 0 13.705516871905843 13.485970379115889 8.908204345047416
3994 3994 1 0 3.113925167543745 8.955133885890556 0.7248042674840519
3995 3995 1 0 2.1552502182989044 8.413947956688222 5.163918605835673
3996 3996 1 0 6.6610417071871835 13.414255166603674 10.15810388311643
3997 3997 1 0 6.672837859337803 11.196000939663117 2.3470953856193337
3998 3998 1 0 8.034915776260831 1.1168615574264527 13.232374104575744
3999 3999 1 0 13.899989777799721 8.641196764584917 8.248581885499405
4000 4000 1 0 5.414542278191259 7.818996713909534 11.119623338225992
4001 4001 1 0 12.804483982517196 10.938053052491199 0.17186875899983603
4002 4002 1 0 8.14263580835531 5.3598587470322885 9.311463236835898
4003 4003 1 0 5.4949991756611585 2.6144200317859116 6.474784813918664
4004 4004 1 0 4.599240195288497 9.459806814028289 0.3035567099837512
4005 4005 1 0 3.2795071327322463 1.766443367644793 0.9870134287252978
4006 4006 1 0 0.027241889622608748 13.930452527290337 7.605817129130087
4007 4007 1 0 7.4875884715799526 2.971073965757749 13.301166774406783
4008 4008 1 0 2.030602244549402 0.9537634227454161 12.948590803093362
4009 4009 1 0 4.3729637774942995 5.4744511646782055 8.750256230936143
4010 4010 1 0 3.036502142977596 3.4329330252697012 11.469978837192244
4011 4011 1 0 3.2777786961744346 6.773567255964074 7.241298546921194
4012 4012 1 0 9.814004475649172 8.810978120158284 2.3099464351726753
4013 4013 1 0 8.02517644194154 1.6044284211878435 8.156482058564539
4014 4014 1 0 3.077212661024107 8.999533839655134 9.6054741392345
4015 4015 1 0 0.7385723856327318 12.475838129790155 3.253227968646406
4016 4016 1 0 4.1637528615143715 11.885963514565818 3.59083144579456
4017 4017 1 0 11.265232800629452 13.735845049349376 5.299474789075213
4018 4018 1 0 10.81238753842648 4.992997484361893 12.18575980986759
4019 4019 1 0 11.731855253272684 5.996089531970527 12.720368130401363
4020 4020 1 0 1.0918528392047215 9.537545637939049 13.207987873716512
4021 4021 1 0 13.101686760381861 8.654972980441467 12.481457283136441
4022 4022 1 0 10.327765795478484 11.96332488089956 13.951897730569788
4023 4023 1 0 8.454461554106379 11.061951475470423 12.643794364511734
4024 4024 1 0 13.274989458883244 9.32129631088866 8.518371555461277
4025 4025 1 0 8.744607039035278 1.1851646619763556 4.466838947694404
4026 4026 1 0 6.679564407070532 5.779791787573716 3.5512023199036555
4027 4027 1 0 4.015569246490852 3.312449880441762 5.451197342447327
4028 4028 1 0 10.69261410691103 5.097196898967828 8.167697936048853
4029 4029 1 0 6.1854242748804 7.8733813785409055 12.5381904191961
4030 4030 1 0 10.888016488082593 10.038159148673504 13.238545440126613
4031 4031 1 0 7.790032601928602 7.179676097433077 6.2377103810874495
4032 4032 1 0 4.4765343013679795 7.122614909972837 11.943428809542137
4033 4033 1 0 13.224687456683899 11.224621315912474 12.770323495919822
4034 4034 1 0 5.989406164971487 1.690023544486164 4.373157435476297
4035 4035 1 0 9.328982625463237 12.941173274624187 8.2821525294822
4036 4036 1 0 5.699261373856172 13.623724341716697 3.2251579686399103
4037 4037 1 0 8.724499127956152 1.8799339524551626 3.1844318296494474
4038 4038 1 0 2.780585685709779 2.6781211265182634 7.842941537320217
4039 4039 1 0 12.262434108714745 13.787814350094367 6.657829794467689
4040 4040 1 0 13.928669616490195 13.562176798525817 5.954873843373709
4041 4041 1 0 7.0186050418158 4.414247547963694 6.116938577796921
4042 4042 1 0 6.567899774241549 1.3927400163465948 0.4688100838645541
4043 4043 1 0 8.05061771919768 4.429223510489473 11.742498313588097
4044 4044 1 0 12.794390964338909 6.0353305716229615 0.5438470512990616
4045 4045 1 0 0.17489415633716307 9.054025465295222 7.479669979122207
4046 4046 1 0 3.0429285570160425 6.317823425951667 12.024427520817637
4047 4047 1 0 0.7898888673937339 6.5528884957917395 1.6905475728386252
4048 4048 1 0 8.260369519584355 12.463351889252564 1.9225642040154038
4049 4049 1 0 8.37117641979019 13.362975617955689 12.203382450004556
4050 4050 1 0 7.466461611634947 9.739557063239975 8.876795817045139
4051 4051 1 0 5.145638709527624 9.269050683119213 4.113891944742475
4052 4052 1 0 4.529387756493481 13.604043453186526 4.449439716650452
4053 4053 1 0 13.174649124191646 12.99862124632343 5.796043589236776
4054 4054 1 0 10.728527858979895 4.878488518595336 7.904372808322683
4055 4055 1 0 3.1917254315828965 0.07198236660207785 1.0695733810713577
4056 4056 1 0 12.695673145114238 13.077812902544554 10.453315037306576
4057 4057 1 0 3.282372911092427 10.331397021861372 13.236619320418228
4058 4058 1 0 8.12028368997439 12.114232543238348 1.4525430788212388
4059 4059 1 0 7.952087339789143 10.576235044174677 9.625900274571663
4060 4060 1 0 4.289106240989676 6.485617833276494 13.085211274022788
4061 4061 1 0 5.239350269112385 0.12832446295651836 0.018862050062756038
4062 4062 1 0 3.5242164009336 6.907786772502633 0.1688172522851328
4063 4063 1 0 6.476947762839311 4.147656593344018 8.841898095975417
4064 4064 1 0 12.42369922459798 5.5672623715629355 11.442100039671812
4065 4065 1 0 6.868575005402015 10.744974965486383 6.712499957802283
4066 4066 1 0 11.750973909125221 5.622276212018463 9.740653467404774
4067 4067 1 0 8.209451807642438 5.229253620054061 2.4408900043652393
4068 4068 1 0 1.6361865023172775 2.697690615303576 6.4261487646401925
4069 4069 1 0 3.7853380615247327 4.15380177901984 6.2936479273064485
4070 4070 1 0 11.289200747098016 0.6072084293977476 9.285962437301354
4071 4071 1 0 0.911215459469892 4.612654822866923 11.532864601861531
4072 4072 1 0 0.16207426809302772 4.776946352426018 3.3638460963037393
4073 4073 1 0 7.721041716164732 6.47171116544337 5.257573621040784
4074 4074 1 0 8.982873588036973 2.9189467058410674 11.360711533368512
4075 4075 1 0 5.636699094533196 3.753014105916105 9.475537491365053
4076 4076 1 0 11.261998619168866 1.075834371036819 5.495136381443703
4077 4077 1 0 9.891974016504856 12.270777969226543 8.661010252765415
4078 4078 1 0 5.854285877252037 14.014321924648922 13.35556174959403
4079 4079 1 0 3.838358503391806 0.5390862147142027 9.001442563640353
4080 4080 1 0 9.694631081763694 6.27944386348509 2.879020309462
4081 4081 1 0 9.018723634801393 7.954309743132784 3.195832244586817
4082 4082 1 0 4.908999610953577 6.239098664125176 2.1669090490314273
4083 4083 1 0 1.2532414455350358 7.908294224002325 6.005834491493093
4084 4084 1 0 2.6246441919689323 9.93918695721188 13.296590366229033
4085 4085 1 0 6.447881090386946 8.888849523999044 2.4474259344849227
4086 4086 1 0 2.4168524644697977 5.292767237801539 9.970449916289374
4087 4087 1 0 8.986347308218475 1.3379654683868925 1.9570094466465648
4088 4088 1 0 5.323391959181008 11.6771059293588 3.150604334473072
4089 4089 1 0 11.40802595969208 12.979548887903803 3.126070926771048
4090 4090 1 0 0.9791457009669645 8.70713963452471 5.446925032660643
4091 4091 1 0 5.773203121081442 10.70887617352238 9.394295737527107
4092 4092 1 0 11.609935713794377 7.0168406875234774 8.670650408217792
4093 4093 1 0 1.43525544704593 5.134772540561504 11.240409516374482
4094 4094 1 0 1.6229072685282844 1.1895017874695464 0.17051919656637055
4095 4095 1 0 3.5834123205075823 1.8463901798338838 9.755641691712944
4096 4096 1 0 1.069090197900403 13.169827871049092 5.707584841062715
4097 4097 1 0 4.241051950311 5.227696451898702 13.92248525174949
4098 4098 1 0 4.996832426755994 12.271020648898517 0.7150944703300001
4099 4099 1 0 2.127977777135917 6.785805662657004 8.84934541584047
4100 4100 1 0 1.3556399538173092 11.70006439073745 4.9278389441204595
4101 4101 1 0 6.249881599487788 7.219458591053187 4.2309160951861005
4102 4102 1 0 12.675900231336866 5.877393273520761 7.805767042790903
4103 4103 1 0 4.255506025360183 12.690130433443661 5.796279129922794
4104 4104 1 0 1.4148415511597527 5.700323215467415 6.384020678160091
4105 4105 1 0 6.765649911545392 12.660552383715322 9.182193779474218
4106 4106 1 0 1.7551001116542262 9.865143435782773 12.74547745681792
4107 4107 1 0 1.70753327883387 10.701756535415106 4.634353866010322
4108 4108 1 0 2.2425215707044406 4.489839272810259 1.5341069785541577
4109 4109 1 0 8.345244395308512 8.240649004167523 9.994437914545642
4110 4110 1 0 5.397865651206832 10.370273010231971 0.1145469665046303
4111 4111 1 0 0.3093099424618035 2.7921794692654793 13.293196446310542
4112 4112 1 0 2.7619681750445855 9.3883222887955 4.027006502302523
4113 4113 1 0 5.501759870335222 9.9045904883276 6.481248887445777
4114 4114 1 0 7.549822886101779 10.47328671376451 11.287966224621204
4115 4115 1 0 3.933312381104585 3.247603439143351 1.8629685263601852
4116 4116 1 0 6.9538371599725775 0.4087398689983544 10.989308628719076
4117 4117 1 0 5.838075359133326 5.477327742968172 7.749399369336635
4118 4118 1 0 7.72389409303683 5.545946115020695 11.444936397739095
4119 4119 1 0 1.1660854259262632 10.82813834724571 4.6775808452435585
4120 4120 1 0 9.566591307079044 2.5448555075987973 3.9146277502872984
4121 4121 1 0 9.966579028077428 8.479599005425497 10.81951217626563
4122 4122 1 0 12.824545044296057 9.51895940509062 2.2417916364631076
4123 4123 1 0 9.934706452517185 1.985310635126904 10.20387426660413
4124 4124 1 0 9.193419967792085 9.797539740429167 9.401002449082645
4125 4125 1 0 5.248491170047625 12.428615048298951 4.219666942818797
4126 4126 1 0 7.332017468574364 9.898788265192382 13.206053520660301
4127 4127 1 0 3.9836637305696825 11.822303002092543 2.0465955383192154
4128 4128 1 0 8.564768875959809 5.762111506733634 6.792220390687069
4129 4129 1 0 4.8369661696197745 3.4819157295148417 4.982990046534479
4130 4130 1 0 6.473552209858201 0.7480625878030224 9.340949206281861
4131 4131 1 0 9.26157251261063 0.32282111447821105 10.095846019586274
4132 4132 1 0 2.053781384023082 5.890035072435497 5.526057278504471
4133 4133 1 0 4.150069653299092 10.936713705664804 6.659874456220993
4134 4134 1 0 11.764069001454336 8.608984911324068 10.433259860904906
4135 4135 1 0 8.11320680893313 9.562350700852942 10.067380895132759
4136 4136 1 0 1.873884289487223 5.598035006343765 6.215814438735334
4137 4137 1 0 10.428494036198655 1.755900214127723 3.968123373557897
4138 4138 1 0 1.1132812506478702 4.01555644852562 11.723582073409707
4139 4139 1 0 13.878893449239994 10.25127127619783 3.2547819326653773
4140 4140 1 0 10.567833903257362 12.089141753083181 0.8844378490781792
4141 4141 1 0 0.3715830846031334 0.5371381786758879 2.612091796098329
4142 4142 1 0 11.971642292894327 1.210085174976665 3.2698955047243787
4143 4143 1 0 5.116188430662541 5.678531694926964 2.9714446378531343
4144 4144 1 0 10.887549420378722 0.5124923890601668 9.447304913514213
4145 4145 1 0 2.3210647278772005 6.776935648109119 9.357279759261766
4146 4146 1 0 13.294726681941745 0.2860729172541035 8.003492321499351
4147 4147 1 0 13.261611090237059 4.137808143272856 6.419471656338883
4148 4148 1 0 4.016803460489471 5.089268852421988 3.5864707929675266
4149 4149 1 0 2.457902292985797 9.529128549330077 7.81340394286442
4150 4150 1 0 2.3182999416154 4.610861588493514 6.85370899486513
4151 4151 1 0 12.83002588775381 8.38330629954824 6.907014508649293
4152 4152 1 0 9.994974407909758 1.6704884661912456 2.661491208403087
4153 4153 1 0 8.335077360614397 12.568357632062925 11.026953931713544
4154 4154 1 0 1.34585785353436 13.982915341838565 7.364128057231826
4155 4155 1 0 7.763992464760568 7.995387427257478 10.34866419854823
4156 4156 1 0 1.7227432424170186 4.036176150429826 9.749294146456842
4157 4157 1 0 2.783745800349722 11.051195834022451 2.622094347613656
4158 4158 1 0 2.113275790275348 6.059919288885972 3.375137108346187
4159 4159 1 0 3.1421638222695667 1.1783786910685696 9.189398971873398
4160 4160 1 0 3.753642740559998 4.951990821519591 7.708713821663464
4161 4161 1 0 9.580382146723611 6.656397305224593 8.250386354493315
4162 4162 1 0 1.6095481789172972 5.830441560699939 7.157554219684755
4163 4163 1 0 3.815438189482734 7.225881438007993 13.714191583162824
4164 4164 1 0 9.743360409260154 5.553035438555637 9.234959239782436
4165 4165 1 0 7.787738983943544 3.0352257952133885 3.3236533881140526
4166 4166 1 0 10.53133422594305 12.040418238298573 12.073515973976042
4167 4167 1 0 7.72188436621126 12.269098840472408 6.898294279565546
4168 4168 1 0 5.074733660194017 12.360019867955685 12.357972783027265
4169 4169 1 0 9.647391199663332 6.439461120624173 1.894304463907489
4170 4170 1 0 9.175071110993038 3.148741521013735 3.8153855295970973
4171 4171 1 0 8.613993733992784 2.4752826692095846 4.56287869504417
4172 4172 1 0 8.952613409532196 12.397231958960369 3.781065769835039
4173 4173 1 0 0.5710323367666332 8.751818352373737 2.497497232102504
4174 4174 1 0 0.8220396646232963 13.658057734978094 9.857101806846352
4175 4175 1 0 8.181158674527953 8.643531545847376 4.042097378640806
4176 4176 1 0 1.6743324737681782 13.897468897109485 9.443255992369501
4177 4177 1 0 9.11848372719603 13.20990833801941 5.557370453726
4178 4178 1 0 9.40194492366227 6.289785342289002 6.701821747063593
4179 4179 1 0 5.810383852615319 5.858440129615752 0.03544763398038755
4180 4180 1 0 7.83378616260626 11.883718705985423 2.403088622190711
4181 4181 1 0 12.991938252947309 4.999580872630736 10.57919847553112
4182 4182 1 0 13.28512424046622 9.705819387926619 12.261725169220623
4183 4183 1 0 2.2760510091710886 6.373642594827069 2.6499459854613665
4184 4184 1 0 11.471928630319205 7.705549442636621 9.106457264346785
4185 4185 1 0 10.288301220154672 11.315158820455657 12.392293938528734
4186 4186 1 0 4.5910650079185835 11.733324415344667 12.274939603193307
4187 4187 1 0 6.351015110309709 2.7667326730369495 7.955348377847546
4188 4188 1 0 2.399901314996209 9.022717868112942 9.655400515623866
4189 4189 1 0 5.354521105417786 7.443543770088177 13.418090164294005
4190 4190 1 0 0.4092484865099391 11.225845279497072 2.9617362913715977
4191 4191 1 0 0.8626641316966323 13.371612726307376 11.612515752867447
4192 4192 1 0 5.36839895351891 5.698269380289113 6.209756773182029
4193 4193 1 0 4.779125549676697 10.934702042871752 9.66012062020106
4194 4194 1 0 7.982986577603045 0.9721528349574509 13.888713853884232
4195 4195 1 0 11.076622955611457 9.878612752303429 5.584197683772128
4196 4196 1 0 13.435026461985478 0.19228625866611293 0.9233234927503008
4197 4197 1 0 13.496482705170544 10.97333063534004 6.060093205269709
4198 4198 1 0 2.5274279327891254 9.639582853107376 7.6724496916389935
4199 4199 1 0 13.358042090089759 1.0233147645158749 8.860686731645082
4200 4200 1 0 6.837124908510055 0.009307476772099733 6.352565042126912
4201 4201 1 0 0.8870919692161074 4.582555887784785 8.643204826443823
4202 4202 1 0 5.978034207667173 10.586516238433855 2.981883301746378
4203 4203 1 0 8.819176955889331 3.0168739369801676 10.263898031366068
4204 4204 1 0 13.268189971259233 12.679242375530134 1.4803627154508359
4205 4205 1 0 0.5377332582752433 14.058926401448936 7.596170598945709
4206 4206 1 0 9.944419841453852 4.480890535230745 12.005061934263237
4207 4207 1 0 6.244197455031407 5.772916023327006 3.202882617210247
4208 4208 1 0 5.754239011973812 13.744747860991357 2.1654879509715146
4209 4209 1 0 10.508034186243005 6.081267870740233 7.099847805302687
4210 4210 1 0 6.046538583774034 12.002243718574181 12.1980301516259
4211 4211 1 0 12.01031182540336 4.652275651001566 7.025781534390212
4212 4212 1 0 10.400230558927317 10.184209099130777 10.123194666684318
4213 4213 1 0 7.050166769183898 3.267654225011917 2.4776877294130846
4214 4214 1 0 11.23083794192314 7.029766393020011 3.8821462444272243
4215 4215 1 0 6.834699454561986 4.954449429860006 4.601445493433458
4216 4216 1 0 11.5971391015471 8.813792261036403 5.129696689448954
4217 4217 1 0 11.91387506068127 0.43736174948295686 9.365596011856312
4218 4218 1 0 0.41775245944901057 3.2209303738390447 4.981099369400935
4219 4219 1 0 13.816718020999048 11.105239188782985 4.073853699108914
4220 4220 1 0 8.626115997374335 6.952725518566545 3.2962176165684336
4221 4221 1 0 5.455019839928047 4.740931804226767 9.740197251320824
4222 4222 1 0 7.397358550248217 4.592816898333697 9.216425157423842
4223 4223 1 0 7.305137001581582 5.392907853532155 5.889647354789051
4224 4224 1 0 10.31744717676773 7.3356152818876845 5.509776689040877
4225 4225 1 0 0.13414595664696186 5.355069360256982 11.574372280946672
4226 4226 1 0 10.80566726269751 0.4778612676047761 11.317807022346422
4227 4227 1 0 12.932400323046132 3.00766260162327 4.290265632924766
4228 4228 1 0 12.474799360093742 1.1056929888540015 6.687604825813258
4229 4229 1 0 9.67706686314747 13.46499809598343 6.105368487270914
4230 4230 1 0 9.403518408563585 6.452478805969773 0.35121279451999715
4231 4231 1 0 9.275719023248644 9.499023072418193 7.019003873888871
4232 4232 1 0 10.89174916869689 11.375767687060568 4.2350919811284555
4233 4233 1 0 2.4671456315339557 12.25813549402372 9.518114901895652
4234 4234 1 0 11.52469886474978 4.510804480975991 6.619740682244555
4235 4235 1 0 1.8765861708748697 4.264817694521263 13.090742422266029
4236 4236 1 0 1.9697897477111508 12.388270622198638 4.781853880805201
4237 4237 1 0 5.3196686443686705 2.392580142731696 10.965847119303199
4238 4238 1 0 1.0486774812160489 0.03187204653784444 2.8274399143105913
4239 4239 1 0 4.000953928211173 0.6958048597756223 0.44178011731058586
4240 4240 1 0 3.0207124472775955 2.2656419156157637 11.911223470444925
4241 4241 1 0 6.6096722465462 13.24054044985945 5.344142833428173
4242 4242 1 0 6.134889611550319 0.5514901383472981 5.768525638579691
4243 4243 1 0 5.0023259047058435 2.6972019328221326 8.85007746183295
4244 4244 1 0 12.998790688431697 7.2786007299910365 0.5964211098645562
4245 4245 1 0 6.6126191462464465 13.136909347279964 9.336131843738796
4246 4246 1 0 0.9779825914066136 12.288069851671311 9.293436880487464
4247 4247 1 0 3.2328162791248416 12.849664423225446 7.252889199630631
4248 4248 1 0 4.267455631124649 9.503740162672903 11.560469251141303
4249 4249 1 0 13.314840635541369 13.300581033952325 10.275143190465855
4250 4250 1 0 7.213393022985446 5.946378721088071 3.1582782121604405
4251 4251 1 0 11.912509186646473 12.922805832113745 11.700757346103858
4252 4252 1 0 8.72401790395458 12.019829885438233 7.469069568024274
4253 4253 1 0 1.7651022105594516 3.758355119192857 13.961011288479526
4254 4254 1 0 3.185623973112588 11.026497623039997 7.379662402590928
4255 4255 1 0 3.5867162066764857 0.9561345723597335 1.0999452374057126
4256 4256 1 0 12.036415983403645 4.435172394299522 1.3249391382553062
4257 4257 1 0 13.456104367123768 8.263091054754325 7.4131311123899675
4258 4258 1 0 2.8536289002851194 12.916433240308882 6.903032171612988
4259 4259 1 0 11.037030720604433 5.452592965127486 6.755616768136048
4260 4260 1 0 11.664268401124925 0.7604195124552301 5.088018973858098
4261 4261 1 0 6.9778829030822935 3.367981168679124 10.037815957062385
4262 4262 1 0 4.362647076955466 2.2120683235973844 2.531169507095058
4263 4263 1 0 12.748122315426107 8.268854341071833 4.015826616586152
4264 4264 1 0 12.030974228226016 0.4890581104705403 1.3566598075433498
4265 4265 1 0 6.375403922757933 11.725194547285682 7.755820424708305
4266 4266 1 0 1.1356716524073796 3.0954341928610174 0.364205891529697
4267 4267 1 0 8.264240128428673 0.923011490160759 0.22616817774251186
4268 4268 1 0 10.960740048130319 7.312369789248792 8.170685891205084
4269 4269 1 0 8.739317252733086 2.457642842629435 1.3143193881715078
4270 4270 1 0 2.6719863127558336 9.547045432935098 5.395059611091333
4271 4271 1 0 8.719275273148812 4.307672749660986 12.65397806132787
4272 4272 1 0 4.234238140679414 7.383558748372728 10.131689082780104
4273 4273 1 0 13.950616543932394 12.188073579593818 9.514711195840153
4274 4274 1 0 1.4029929507905394 12.228797018154076 4.471780803562158
4275 4275 1 0 12.356041842512118 0.38943056251554736 7.115959867167305
4276 4276 1 0 5.520153610249915 9.084585215269039 7.309401385668059
4277 4277 1 0 10.532120984802344 1.9265409411959034 5.749684513595059
4278 4278 1 0 8.41508902400932 11.396279458916817 13.1091481883362
4279 4279 1 0 1.2661246935722155 5.359090566092308 9.053014064822534
4280 4280 1 0 11.780971231399265 13.806152218322019 0.6127468677634814
4281 4281 1 0 11.967194118246061 4.468883489717402 6.800055878386926
4282 4282 1 0 10.57283209680049 11.901633592369308 13.716407850407315
4283 4283 1 0 12.419575103196513 6.202653946480503 10.653902117778236
4284 4284 1 0 1.2624942944372677 8.919288430782466 10.270698900072349
4285 4285 1 0 3.6903450665667705 6.905198815471791 1.481615308156197
4286 4286 1 0 7.754320579960906 13.670777696941046 8.022417681840817
4287 4287 1 0 2.028759843000324 4.445638393164047 7.3358669290323135
4288 4288 1 0 8.05547269922631 0.9908775216983537 12.416965210114947
4289 4289 1 0 4.575445749146066 8.613218181020967 11.23008244472904
4290 4290 1 0 1.7326764085765518 1.3818488396640611 6.126137321813474
4291 4291 1 0 9.38444869724615 10.207927887557886 3.4059610622397796
4292 4292 1 0 8.544850366465509 6.7451079698026595 1.2627200783374828
4293 4293 1 0 12.555174659488417 5.71591606429563 3.135654345519408
4294 4294 1 0 7.314859260564639 13.712812150300492 12.961325282184866
4295 4295 1 0 3.414965956422122 11.281531442867418 9.350550333781168
4296 4296 1 0 6.459781098810034 8.196782710922365 6.99551908827052
4297 4297 1 0 3.2311211907163964 4.239816803997115 1.694881856514483
4298 4298 1 0 3.7125118545662366 3.0558164695119148 6.893177204275227
4299 4299 1 0 8.186989295138835 13.901357899051696 2.30782598040934
4300 4300 1 0 4.607636639887482 7.649293641493013 5.744084159663149
4301 4301 1 0 11.883017012165132 8.168280490151309 11.033088972004055
4302 4302 1 0 8.112838409540922 4.218290283277905 2.425641949256242
4303 4303 1 0 8.942251497281351 13.840451265133865 10.984462948433643
4304 4304 1 0 10.214258539059268 10.171523108836459 11.476543184994052
4305 4305 1 0 10.222199060597204 12.296974233269987 11.306502933234185
4306 4306 1 0 13.432234420348212 13.592696319312964 4.924053625333345
4307 4307 1 0 1.3912289456809483 10.408688428669533 4.797410225623669
4308 4308 1 0 9.417708230899152 10.888247412421494 7.531480793104158
4309 4309 1 0 0.733054337425525 5.70745665263736 3.1394974041705734
4310 4310 1 0 6.892747584847241 0.665836954724277 9.400499343259117
4311 4311 1 0 7.600804157373927 1.634369462616981 11.36600053408048
4312 4312 1 0 3.5262073915327705 2.9713344533862966 13.441288722563174
4313 4313 1 0 11.207660631597951 13.387026082338416 1.4370194497473425
4314 4314 1 0 13.931050414154262 5.848496548507707 2.382585062779665
4315 4315 1 0 9.70967852916342 13.74298859616989 8.363196293875875
4316 4316 1 0 9.00335475642931 10.964853315323438 6.991652601939937
4317 4317 1 0 6.467996944383059 8.641813692992812 3.9664470599572312
4318 4318 1 0 2.4506287269697866 12.398531221705335 12.877587503459315
4319 4319 1 0 1.7568840418706448 9.801874658667812 4.606848858977328
4320 4320 1 0 13.884648207159868 3.82565773737785 7.472248073100536
4321 4321 1 0 4.414223723381527 8.064502625620003 1.6682958279268791
4322 4322 1 0 7.5796835075404205 9.602394811831706 3.749694056399999
4323 4323 1 0 8.356557358908836 1.0407508784167252 4.372346992490606
4324 4324 1 0 10.266098968531853 12.328982535595518 9.040342089990379
4325 4325 1 0 12.625265844658434 3.440908159758597 4.5015034111898125
4326 4326 1 0 6.503155906577497 10.700920604811515 11.06290717146677
4327 4327 1 0 2.0283863947766148 9.968457798208325 11.193409915510104
4328 4328 1 0 4.936487169718471 11.944482078756964 7.93089264607818
4329 4329 1 0 12.196330982579978 7.614529341977529 13.037978105743775
4330 4330 1 0 2.9375827734054023 1.9244732258678439 3.770167753598303
4331 4331 1 0 3.2911760277192315 8.089552463771396 8.730156729591272
4332 4332 1 0 7.566665781052677 5.690585559944894 13.170853873269118
4333 4333 1 0 10.311281623049389 5.115214245071536 12.014124981191708
4334 4334 1 0 3.912114883999545 7.744916168736699 5.580340273705395
4335 4335 1 0 12.361389853141185 13.098603776107614 11.512651478256993
4336 4336 1 0 3.8973235009983997 0.06705891177634693 2.924592169483486
4337 4337 1 0 8.677403605260492 4.005124092954775 7.2752015309426845
4338 4338 1 0 0.25119836536167495 5.705473089866487 1.080929080146595
4339 4339 1 0 6.947749302209013 3.790670780253342 10.697582879129843
4340 4340 1 0 6.928068110742349 11.06594119890994 0.8212148063385527
4341 4341 1 0 9.154556986572208 7.910279565737274 2.7268699156153864
4342 4342 1 0 11.780250744591298 7.423599425604273 4.318178666962234
4343 4343 1 0 1.0201462744010004 7.267611151890354 4.731526786584518
4344 4344 1 0 0.04222947891496157 5.03977199497068 2.799271029657736
4345 4345 1 0 7.732031012078403 11.464142600335018 3.5303279166031407
4346 4346 1 0 7.0441382957246 3.104899280947562 12.20534140398837
4347 4347 1 0 4.492211688903658 9.538197620881435 12.964444194420883
4348 4348 1 0 0.7806545625448649 2.4263484571410303 13.259741206530414
4349 4349 1 0 5.223751354916876 2.51854479134687 5.929087799956987
4350 4350 1 0 7.490770884015693 5.279487907624072 11.546211886375293
4351 4351 1 0 1.4544966954303629 10.849390882194873 13.09880890829284
4352 4352 1 0 4.157094796987526 5.548255276871647 2.9232519392580367
4353 4353 1 0 9.551103755314283 2.9325482457829306 14.020172669042921
4354 4354 1 0 5.030460654408277 12.263920974259856 3.0344491488409586
4355 4355 1 0 7.069429188225546 6.9039928803492465 13.61854536828553
4356 4356 1 0 7.679359021747366 10.321924281186941 4.288006085789713
4357 4357 1 0 12.771594573258561 5.811273194327232 7.856356988754416
4358 4358 1 0 5.514176841537368 13.031399679433287 9.238945102269561
4359 4359 1 0 0.0718465573766199 6.158250037817229 8.734452010631244
4360 4360 1 0 2.7573603842033294 3.5404719805108735 6.740652602678914
4361 4361 1 0 10.597895349381192 11.218644478323892 12.601602154897092
4362 4362 1 0 0.7970486082925194 5.1772658102849505 12.426765016532384
4363 4363 1 0 3.8277135955009824 3.831021369378216 9.035214326612063
4364 4364 1 0 10.318776006542075 11.83095034219419 7.735676757155667
4365 4365 1 0 7.95086175696533 10.789843052646617 10.809743568749692
4366 4366 1 0 10.619486245254667 11.585926384155545 7.054570889371236
4367 4367 1 0 13.975492523820769 9.49103511912885 2.0326555109016184
4368 4368 1 0 12.393185171877546 5.85198408724857 5.186214506210646
4369 4369 1 0 5.938467361493216 6.049648454583673 8.298082685475542
4370 4370 1 0 13.478087837267218 5.60739403437684 2.454222025345283
4371 4371 1 0 6.060717660146107 7.161067795184198 12.47328957742052
4372 4372 1 0 13.156831843493014 11.010687925946574 6.593981399867388
4373 4373 1 0 12.750584908141036 11.688151818269176 7.6976631000640054
4374 4374 1 0 0.2592724491743558 13.643114276652417 6.300126657881802
4375 4375 1 0 7.070168248156265 10.069609893232666 6.0864698943379105
4376 4376 1 0 5.1513350169332615 2.230923495746042 1.7653996654283204
4377 4377 1 0 10.959424002248111 9.32916145045566 2.012088671657775
4378 4378 1 0 5.400107887163895 9.452868961365635 9.275959559338604
4379 4379 1 0 9.48885990573942 13.734276753344286 5.2110519278087395
4380 4380 1 0 10.70880811800583 7.920007292405202 9.762840826298067
4381 4381 1 0 0.05826606985480936 2.3111604431136636 11.325135891260887
4382 4382 1 0 3.1119757654958904 7.289776757548722 10.640256201818389
4383 4383 1 0 1.5921491358902233 9.964643102376682 9.955107336969784
4384 4384 1 0 1.8441809811573198 6.157082326994872 4.347738176826415
4385 4385 1 0 0.8315323305935606 10.259809041987571 6.315987163209885
4386 4386 1 0 4.975447554973142 11.735703050771862 0.23826839019918666
4387 4387 1 0 13.145608354941558 4.967435186018618 12.299640415603013
4388 4388 1 0 11.888109302046466 3.2421805670339583 11.387234039839859
4389 4389 1 0 4.28410153515448 12.361321812322464 1.9075443517319475
4390 4390 1 0 7.52694205778039 0.8768023999772185 5.6202343772237
4391 4391 1 0 8.714807147388147 4.680844723756384 7.9404163270931845
4392 4392 1 0 4.545472715908485 5.598623956279557 10.175830757609411
4393 4393 1 0 13.226029762418333 10.503493604830362 4.534526694588967
4394 4394 1 0 6.893227805371072 13.902355241853579 12.697094038696696
4395 4395 1 0 3.5775907554920487 0.6348092527298149 12.014310470026622
4396 4396 1 0 3.8704523740474337 9.978758644511707 2.518859080304692
4397 4397 1 0 7.342060884576267 11.770503704042909 7.961486362973819
4398 4398 1 0 10.987076073285245 0.1828954480500184 9.225587402396027
4399 4399 1 0 10.191266074638866 4.255145614931159 4.806250631071372
4400 4400 1 0 12.286888082013524 7.965311924380013 7.124995480449709
4401 4401 1 0 5.608743280957052 5.096772029044025 9.518908056296581
4402 4402 1 0 10.852660069476977 2.6642379165727155 6.939694902793063
4403 4403 1 0 8.817917768232748 4.517171242265976 9.614828340370293
4404 4404 1 0 10.165481007922809 13.285410488095586 5.900089909249397
4405 4405 1 0 2.249248011637239 6.84668959765549 11.172541337348308
4406 4406 1 0 3.4686788096318204 1.3479051513419944 10.88559829260207
4407 4407 1 0 12.227028777961285 13.236153868007213 12.738181544132349
4408 4408 1 0 9.914910021420887 14.051884793011729 10.95766178993538
4409 4409 1 0 10.527045560274136 13.126692947554933 1.175091429195272
4410 4410 1 0 0.7813746951704292 5.761143900230175 4.374251159961137
4411 4411 1 0 12.65089731557856 7.263130843999784 1.9255706704038658
4412 4412 1 0 3.8077760502475115 7.726448135041106 12.609622514874422
4413 4413 1 0 7.933116457971239 3.0888304709665584 4.030269785148041
4414 4414 1 0 2.8056558335713024 7.288967384214291 10.528886742218116
4415 4415 1 0 12.37539733745279 8.719243413738257 0.09354344866095458
4416 4416 1 0 9.282622190665622 10.060918181228203 5.698453882083275
4417 4417 1 0 3.105567763520073 7.9406137202593055 8.842263226435184
4418 4418 1 0 4.226603671118656 7.5032337884097675 6.107429070693101
4419 4419 1 0 1.8839996463439173 9.508502698635688 2.606069438750019
4420 4420 1 0 3.2565041916186286 9.198024219072595 8.672914491777545
4421 4421 1 0 12.843803884995003 1.1328506545967971 11.860089838750916
4422 4422 1 0 5.7816353716188225 4.552271270595221 2.5648425050158763
4423 4423 1 0 9.668984858529711 8.33079563958907 9.570318767505745
4424 4424 1 0 9.435580871922625 5.477196749563678 2.367731776132239
4425 4425 1 0 0.5888955279071952 6.558953128598051 0.5267617931940639
4426 4426 1 0 3.4048056684571906 1.2995278771523449 1.3822526909197579
4427 4427 1 0 10.855772291442863 11.494927721691248 2.986086346052486
4428 4428 1 0 13.447564285316 1.2454225871914357 13.744015647277868
4429 4429 1 0 12.330558174246754 7.891307104163392 0.031409315672915904
4430 4430 1 0 1.9400339849458623 1.6955059533703498 1.1841081663022848
4431 4431 1 0 3.347928431039308 4.274851100200002 1.3782120385870877
4432 4432 1 0 5.541248726240166 13.920060252034506 1.6938156919485161
4433 4433 1 0 8.195070394999371 5.6591053030091265 1.8852293799352626
4434 4434 1 0 9.446299276366297 9.416466222323347 6.281893904363391
4435 4435 1 0 7.593138369101808 7.926534410159673 0.6298997350722921
4436 4436 1 0 1.8315787776075036 6.134238145830147 1.4632467367516964
4437 4437 1 0 9.233164876883457 0.7466425488333872 3.4319027994689923
4438 4438 1 0 12.701962091285775 8.813125019255052 1.4080491421482988
4439 4439 1 0 0.16814589673355637 12.229757028144356 10.112790805909674
4440 4440 1 0 5.041748930989949 12.142449023985083 4.506327594195426
4441 4441 1 0 6.043373315678169 12.668355850576585 9.917089831838322
4442 4442 1 0 8.63743706551752 11.755030024389336 13.053472295404822
4443 4443 1 0 8.341972837033758 12.180730084279398 3.302496752609709
4444 4444 1 0 1.5780340824305512 1.539188024205939 7.305471537496732
4445 4445 1 0 13.375359448749814 2.8434499249291756 9.656701644669775
4446 4446 1 0 13.583506925520664 6.318831215786075 3.0727873417152667
4447 4447 1 0 10.13761871186531 8.27778831656598 2.7234660233300865
4448 4448 1 0 0.3380957310502575 1.2011812165970424 1.5315136166463064
4449 4449 1 0 5.031638214496397 6.930854702194079 6.970183187490412
4450 4450 1 0 2.5867704702339864 11.188563688709984 3.8650067089933082
4451 4451 1 0 6.535832367758592 2.8384838140463584 12.086767593753516
4452 4452 1 0 13.052980350607813 2.1843785274540295 13.863220805075699
4453 4453 1 0 1.9662770138866905 11.117142695567507 8.465753498276552
4454 4454 1 0 3.58960539414787 8.17056437248018 7.838542332523771
4455 4455 1 0 4.384646822036198 3.10339279117364 2.8985908668916296
4456 4456 1 0 10.515049852355695 3.8222945152662673 1.0145859678241786
4457 4457 1 0 12.926902833891795 8.181099899228734 11.270712898159948
4458 4458 1 0 3.7535376476325233 3.2969723021988044 14.056134154523159
4459 4459 1 0 1.0660532848811548 10.60036601097198 0.7355276486379717
4460 4460 1 0 13.110278695873106 9.649488685057497 9.632590489895392
4461 4461 1 0 11.435105136469536 9.378653193388311 8.5839164031689
4462 4462 1 0 3.6985363211537363 1.5326168343431916 7.623135558739553
4463 4463 1 0 13.971968141442105 4.852153520050812 8.032941332834207
4464 4464 1 0 3.5420897016463635 11.829989856431055 11.092402835260387
4465 4465 1 0 6.4611453045074105 11.958051242111074 2.054956036629958
4466 4466 1 0 10.48201145187235 13.000711425626667 12.003064327633387
4467 4467 1 0 1.2572953578186647 10.185088433189975 9.267513440503162
4468 4468 1 0 13.545882384978498 1.4966036380771521 4.472440828827374
4469 4469 1 0 4.036241282786432 6.323814873325089 9.980703379118575
4470 4470 1 0 8.596387164608213 5.425819198317625 4.943433498242418
4471 4471 1 0 0.7158001333280039 1.6856233006075028 12.026879020470775
4472 4472 1 0 3.86852889859441 6.887174445596248 4.074136027713582
4473 4473 1 0 13.224455649338308 5.074962759972414 1.5865445305293606
4474 4474 1 0 11.705321286980793 6.672254171222784 4.29767392420856
4475 4475 1 0 9.223687175775954 10.186112721447346 3.36525805893832
4476 4476 1 0 4.073129886119678 0.6236696719773515 2.3512486064960805
4477 4477 1 0 3.882639853415513 12.10937423736596 8.550914138028675
4478 4478 1 0 5.951193453475736 3.0595786541620416 7.369878074290125
4479 4479 1 0 7.1686764122903455 7.227151595716537 4.449335598530598
4480 4480 1 0 8.19964150744328 4.8280078121362795 2.329018172632803
4481 4481 1 0 0.9359709827503856 11.638013571228083 4.792010704610834
4482 4482 1 0 1.9492264826026708 3.6423505966065974 4.017260966468142
4483 4483 1 0 8.811778457675947 10.727035551462087 5.847833878240053
4484 4484 1 0 9.420829833100806 13.083563052264017 11.324580082629492
4485 4485 1 0 10.26448203554021 4.646557008368603 4.1105268557951975
4486 4486 1 0 10.950137064537017 5.5213083471547675 8.113564860889625
4487 4487 1 0 12.181225538431267 5.573003514253874 13.168619971801103
4488 4488 1 0 9.639688942491425 10.307830664262989 10.472322735950904
4489 4489 1 0 11.737221444744655 13.703967872245043 0.21812370599658965
4490 4490 1 0 12.14524249779412 4.970694389436303 7.2901557056567565
4491 4491 1 0 13.431048475995858 13.60196904009698 13.193825205058856
4492 4492 1 0 6.4441703389336915 5.038789812946992 2.0430957820204325
4493 4493 1 0 8.649116168446096 1.9205444893007941 2.6571006436108515
4494 4494 1 0 9.076400136971005 0.26551733008873235 1.1529716949946867
4495 4495 1 0 4.079204103767389 5.459005098697566 2.092691351241795
4496 4496 1 0 11.39004946156105 6.205266376562961 5.93377358661984
4497 4497 1 0 1.8808291125634842 12.587926729827661 13.323414481052179
4498 4498 1 0 13.996190204531823 2.5672688104987733 8.474970675420511
4499 4499 1 0 10.44024183156506 13.900726134292709 11.248560389916836
4500 4500 1 0 9.085969865336569 3.356256828208249 10.10619245809152
4501 4501 1 0 7.091782599033501 0.21212827092965242 6.838248332085876
4502 4502 1 0 3.3189061065260814 2.823126517539777 13.545049877989692
4503 4503 1 0 9.854280810848179 3.936664058782356 10.75228774230988
4504 4504 1 0 4.943768492774485 7.4381215422012215 6.938030618667878
4505 4505 1 0 3.1200850326772054 8.110319661816124 0.6771416503371572
4506 4506 1 0 1.5684305078403993 3.6381509398204166 3.766427136714463
4507 4507 1 0 10.81189905806834 12.199300440960828 7.808436199555093
4508 4508 1 0 9.80852761958044 4.835892530647875 9.933786653229248
4509 4509 1 0 9.625160933231786 0.6535048090838184 0.8952018883650105
4510 4510 1 0 0.36205441399792604 0.5343346350963025 8.823670269020834
4511 4511 1 0 7.916391522295161 0.8949280146064957 8.62982423203831
4512 4512 1 0 9.127613818308497 7.62458358465156 13.712787729686118
4513 4513 1 0 13.573336952840721 4.5885685211161835 0.5480383603297051
4514 4514 1 0 9.40905863882541 7.568239773658528 2.9259646812206057
4515 4515 1 0 9.195609168474526 7.846285938339022 4.8862801873994215
4516 4516 1 0 4.420672264294886 11.490438084375512 2.9397259806436034
4517 4517 1 0 3.5257910099224903 6.76024607684277 1.3419664730348446
4518 4518 1 0 7.658610468049741 10.663588301363 7.0527143176232165
4519 4519 1 0 5.944253474391852 0.8277589019091551 10.79856439669794
4520 4520 1 0 13.494833549116374 8.582744000839996 12.22650419844662
4521 4521 1 0 8.5188375778103 3.8309897947431137 11.029213133064665
4522 4522 1 0 8.986179557401789 8.386781147847937 2.0219322353280393
4523 4523 1 0 12.872996668775706 6.862779629397322 0.04592377351665632
4524 4524 1 0 8.973834817008694 5.508313691405794 0.931080002038562
4525 4525 1 0 7.299190268073163 9.571398756673037 10.703639565837621
4526 4526 1 0 7.961361261162665 6.13771857545826 6.806518441424616
4527 4527 1 0 5.4251590440686615 5.504097416030173 7.666536978147135
4528 4528 1 0 2.299828016560405 2.401646967927801 0.1678714724365599
4529 4529 1 0 11.426408960577614 8.189302164611586 5.022413325353394
4530 4530 1 0 0.6590862089063697 5.42275807181545 10.5611465244631
4531 4531 1 0 7.681746815584077 5.945567609259203 2.2562820297100536
4532 4532 1 0 7.404054907525276 9.828492243780559 3.7375531918672995
4533 4533 1 0 5.87947333123345 2.0914787097524155 10.926916698954251
4534 4534 1 0 2.3916937783022196 11.317069589062854 12.732081518851146
4535 4535 1 0 3.336154140732619 0.5428991909781979 12.523766036264862
4536 4536 1 0 10.937179454527524 13.808877767478565 3.960545915482295
4537 4537 1 0 12.056620366644918 1.4564321195034768 7.634899926720323
4538 4538 1 0 11.20517754407507 2.06605554080505 6.2098951108279
4539 4539 1 0 11.266734064353056 10.253766688801353 6.0645928070926916
4540 4540 1 0 9.77416039441099 5.53032057860751 2.6580801119880504
4541 4541 1 0 5.255332249229156 1.236693115786635 0.4021945794909211
4542 4542 1 0 2.8616825130457815 2.576101499447419 0.8266447635616274
4543 4543 1 0 4.929102736340957 7.534587719494322 12.459367364482894
4544 4544 1 0 12.52663176181102 10.325203024222763 14.001691350139458
4545 4545 1 0 12.947518688092753 2.784283133551634 0.309819024355078
4546 4546 1 0 9.749274504436771 12.304545471957235 3.109783800930734
4547 4547 1 0 8.95271442846411 4.408150674277021 10.594068845040427
4548 4548 1 0 6.852972447381172 13.792991783074227 4.387028017184982
4549 4549 1 0 3.4375552497612536 2.0073915130070374 0.11041730291460176
4550 4550 1 0 11.643870950441684 12.534656307970675 7.117360792039336
4551 4551 1 0 2.7093339681181408 12.19139699832285 5.007721415560043
4552 4552 1 0 4.638215373106727 6.5682584038365555 13.415375319886007
4553 4553 1 0 10.863658119792873 8.927382858861089 0.9028152812316232
4554 4554 1 0 5.482445038293786 11.821400272843764 0.14387187076154753
4555 4555 1 0 8.646249976028834 13.979723630093343 10.294431275517491
4556 4556 1 0 1.9214322903185637 8.841233012016522 11.029002702372837
4557 4557 1 0 10.20194582305546 5.087596480862204 5.327794249745112
4558 4558 1 0 8.441924221385365 11.826222474000454 6.09055002710214
4559 4559 1 0 9.548791188125724 10.36555000904982 1.5018981765726092
4560 4560 1 0 8.098193550080214 6.236928570799266 1.7202107239443427
4561 4561 1 0 2.286157179501747 6.917985132060158 4.9994191768063
4562 4562 1 0 5.055387364649384 6.255276833514728 3.805688883689173
4563 4563 1 0 3.48113053350651 7.059013588975854 3.424992179437672
4564 4564 1 0 6.255948984967676 5.550416691536893 9.063955878233031
4565 4565 1 0 10.899565574664535 6.515493569529274 10.296075394186685
4566 4566 1 0 10.094895326793708 3.050976431674965 8.731484499702658
4567 4567 1 0 8.303127705621145 8.991857004999977 4.890990927138117
4568 4568 1 0 0.20173418196360365 7.32890833585673 6.064293849026134
4569 4569 1 0 8.544115659762372 8.561616540202088 11.652170542222818
4570 4570 1 0 0.9054777779788139 3.9875824982453048 5.708258700323764
4571 4571 1 0 11.67312841293671 8.799733584856668 11.434421010153828
4572 4572 1 0 13.949024562768885 8.750876699257155 11.395732608610786
4573 4573 1 0 12.333010174620938 8.806300831557381 12.198157984921348
4574 4574 1 0 11.849317100087196 12.026581089110048 6.859965007621025
4575 4575 1 0 3.1510623778176834 6.009678407447306 0.5432077182869811
4576 4576 1 0 2.30811091549968 8.82842816525104 2.7433946764790607
4577 4577 1 0 10.926452046838616 10.625805828268122 1.9055149664162465
4578 4578 1 0 12.9205609955998 3.7215925210931613 7.657118631114506
4579 4579 1 0 2.97468807151583 11.682148304259256 5.860340100558966
4580 4580 1 0 11.337014007420164 6.21597511136402 5.030698119443319
4581 4581 1 0 13.09973399834714 0.5768577332737277 4.834873154868258
4582 4582 1 0 6.597907399083839 2.3362118122043904 6.838688427300718
4583 4583 1 0 7.510708028323675 2.788432118291281 4.302566814086633
4584 4584 1 0 5.093629677080392 7.999031128061462 9.497579777237632
4585 4585 1 0 12.19364915892651 4.433295137764765 0.6155743728031574
4586 4586 1 0 1.669492662729852 4.746902179244344 0.2679942419366308
4587 4587 1 0 7.666028886071586 2.3329524232049645 12.154169373305136
4588 4588 1 0 0.9124490000378077 9.630503405691758 1.8766610609114047
4589 4589 1 0 12.067446604077013 0.5477481159879861 4.907399456674697
4590 4590 1 0 10.535802258100988 10.899566244959049 11.699967862741413
4591 4591 1 0 0.5982955855294994 2.901971515868554 1.0261818897725659
4592 4592 1 0 7.154786635799304 2.0817254594302783 3.0381685373592995
4593 4593 1 0 8.733515888318996 6.927102176119944 8.365521218645217
4594 4594 1 0 9.367384125358267 0.7353330375054478 11.836352023850893
4595 4595 1 0 7.485495077496972 10.368666685001442 7.70521080610075
4596 4596 1 0 7.373990156488198 2.7051752477705793 4.960735360001476
4597 4597 1 0 13.913213124405113 6.171258801448925 8.415068825978015
4598 4598 1 0 10.530930343915365 1.9021952866730152 8.414033481908309
4599 4599 1 0 13.937230046001137 8.796078093214607 1.4499915500520097
4600 4600 1 0 3.954801756567598 1.8913954976894414 6.598477719201945
4601 4601 1 0 12.62760102889147 9.458682891585932 10.240289204100561
4602 4602 1 0 4.455448802640142 9.291114145434996 1.444028209369235
4603 4603 1 0 0.42746321240811624 14.060495565745944 3.2597996621018965
4604 4604 1 0 11.755920886124857 6.5447169935728695 14.013523678267424
4605 4605 1 0 7.791971324647402 12.829473109108232 13.884723297927742
4606 4606 1 0 0.5383779820397191 4.345111143760474 0.9374760855920804
4607 4607 1 0 2.659472430286593 13.142915137518807 9.20968962268211
4608 4608 1 0 12.791178657112214 11.861353708403325 10.818901779618605
4609 4609 1 0 7.596805427812423 7.120005258089884 13.615613311404596
4610 4610 1 0 0.14824304214516773 2.115387236996415 13.907193107687005
4611 4611 1 0 3.3458043208146853 12.520113971289009 11.840682069949807
4612 4612 1 0 4.130416535606672 4.474632107505564 4.987571303207961
4613 4613 1 0 10.312539332854314 9.910005743346618 0.5168386701096144
4614 4614 1 0 7.166431426912355 11.908287884985421 9.304968223339186
4615 4615 1 0 11.12482274706776 5.487985660195849 2.4194104031111943
4616 4616 1 0 14.052894367914742 13.70456618626814 4.083978035102255
4617 4617 1 0 8.238330822861487 13.866484879627324 11.140441486407727
4618 4618 1 0 1.454165782538299 9.139542089285442 9.650435577030185
4619 4619 1 0 2.2145695825114013 4.876785320500228 7.276011075803615
4620 4620 1 0 2.9976990261503307 10.738997678831593 9.057514258620836
4621 4621 1 0 9.989663422846862 10.866321730419548 8.719309262166865
4622 4622 1 0 9.972733897192617 13.182091163615608 11.026593742891864
4623 4623 1 0 11.598168412853022 8.436062133069406 10.710417148434738
4624 4624 1 0 4.822540454770161 5.757024308979006 7.747840093394283
4625 4625 1 0 3.695586444612015 5.110406714619144 2.0771746618580886
4626 4626 1 0 9.528704382815206 10.70591194102988 4.621957732063406
4627 4627 1 0 1.8502512910349107 3.7708253203077673 3.152210444352398
4628 4628 1 0 0.515502587626585 8.07647158955835 5.932046980551522
4629 4629 1 0 7.596334265030246 6.033501588008554 1.9012414604798373
4630 4630 1 0 11.233491633771129 10.29164196842956 8.430268648340695
4631 4631 1 0 0.4016796931365419 2.853311782416237 7.840886710807957
4632 4632 1 0 12.642422028772673 2.378096266840928 6.613000165140939
4633 4633 1 0 12.544472092051878 9.62391897171679 2.961491673998419
4634 4634 1 0 11.316364662890589 5.6804988391761375 10.503210105984385
4635 4635 1 0 10.2880110485314 3.8446180230183438 11.888760760412698
4636 4636 1 0 11.492545293570672 7.571831445766891 4.217615080663063
4637 4637 1 0 12.518626954185931 12.356445692199802 6.421838919265066
4638 4638 1 0 13.777511447030552 8.152550994099316 8.844758881428486
4639 4639 1 0 0.9254746925519559 6.143182283784011 1.5578125858365028
4640 4640 1 0 10.35676565935236 10.582596187238545 9.19160101885719
4641 4641 1 0 12.230646137418665 10.436906608584833 3.2934439380666993
4642 4642 1 0 10.692393427499924 9.027001530676326 9.759994736888135
4643 4643 1 0 5.531423396713825 5.110841995032898 4.088273373592045
4644 4644 1 0 7.914904082336794 10.69103212528277 10.94164462384055
4645 4645 1 0 12.615709104910753 12.921976200380408 1.6113793902707323
4646 4646 1 0 0.5911798871731414 5.482099490555165 4.428756055473762
4647 4647 1 0 13.80222603227724 13.59863705217975 13.941826350970267
4648 4648 1 0 8.926043508222318 3.093053022808612 13.298947890289481
4649 4649 1 0 1.7711060273431114 12.433506983490002 0.01536905886245745
4650 4650 1 0 4.278834655710533 0.2166511192861326 3.192680753570978
4651 4651 1 0 13.71031418380919 4.410965402452106 13.58956604564493
4652 4652 1 0 11.162118814334024 10.451680279777113 9.3018353287455
4653 4653 1 0 5.507593852578403 9.900854013299531 2.572804089309152
4654 4654 1 0 12.167071614518244 4.939504722117698 11.575234959019634
4655 4655 1 0 2.2020064147407075 8.331302450571345 12.322232255399392
4656 4656 1 0 11.46350925754558 3.356851913963142 2.1697764132226944
4657 4657 1 0 4.422394644548497 2.9599775327295332 0.437201902283912
4658 4658 1 0 5.818431928265221 8.473077367868278 2.139686790615671
4659 4659 1 0 0.3006810508229689 3.481780878986645 10.191806133528154
4660 4660 1 0 5.031205915517249 4.563561678854935 11.402975780560404
4661 4661 1 0 3.4503611457506174 13.392751713644484 13.519123618621945
4662 4662 1 0 7.170272901740177 8.713048905107476 10.0175806499546
4663 4663 1 0 4.169557484394965 10.997410313512203 10.395629009501095
4664 4664 1 0 3.733583588252407 5.218875849346362 5.514813627770336
4665 4665 1 0 10.45856624995725 5.876261854056865 5.5803025843018546
4666 4666 1 0 0.08673984886355922 8.472762766761432 2.310228196234507
4667 4667 1 0 14.024577009886341 6.208261550724571 10.714303815477557
4668 4668 1 0 4.1429938167493825 11.500660978715748 9.926264360324096
4669 4669 1 0 9.534772607727918 9.472784358667669 2.7507358390882297
4670 4670 1 0 8.013002722285695 13.377386585666114 10.616244830624991
4671 4671 1 0 8.832764494634766 1.1088206193077703 8.975806608019587
4672 4672 1 0 4.58543142786262 11.327340397870767 3.9265272172397343
4673 4673 1 0 8.539163463463177 0.014969066407268973 8.368425693437201
4674 4674 1 0 4.779998042571169 12.704636091595257 1.5959139516709988
4675 4675 1 0 10.368131341052928 3.688568266570128 5.647827168693719
4676 4676 1 0 4.774389693094503 13.249504656190137 11.591936423452475
4677 4677 1 0 4.479038614772136 7.5465536973292275 6.140324876497665
4678 4678 1 0 13.47970544201258 2.813010842756198 7.055199358325365
4679 4679 1 0 1.9012387069508168 1.1069290962157674 6.630117871878884
4680 4680 1 0 12.770388057015538 13.189069118421711 13.99138943186648
4681 4681 1 0 0.2650424576179287 7.303261397010609 11.776061241081058
4682 4682 1 0 7.584794901763317 10.5592894868776 0.6867988702058035
4683 4683 1 0 0.34293288515645015 7.196554395193262 13.222758334233843
4684 4684 1 0 12.208322671913118 13.638993414501364 8.769961264441767
4685 4685 1 0 10.03733232222321 12.212617634350522 0.6031228153484116
4686 4686 1 0 9.93656335897033 6.731789950440276 3.3105636872517783
4687 4687 1 0 7.661191211341749 4.1751422535951495 13.198060741800912
4688 4688 1 0 6.537538662092726 2.1093829535277164 3.479551492326143
4689 4689 1 0 3.5786287684317317 10.019688490708253 10.750506172743727
4690 4690 1 0 4.7072603719851305 10.105296774768764 3.3725334368338657
4691 4691 1 0 0.9917508012710095 11.136835751378309 13.107822072626437
4692 4692 1 0 8.62725678281549 9.6913306421397 7.023681552316711
4693 4693 1 0 5.833715324497235 8.566239150709217 11.48253787644836
4694 4694 1 0 1.4550822137537203 8.591615054166418 10.733588124976457
4695 4695 1 0 1.1280251971481243 11.839022872803787 8.31296504366264
4696 4696 1 0 4.935543057442922 0.6916839647407304 1.3680112928279127
4697 4697 1 0 7.837700162759552 5.067206937643498 6.82352031748219
4698 4698 1 0 3.962639501405525 4.1858530054921985 7.010748100713509
4699 4699 1 0 3.9432060864617333 11.497855512497674 0.18926181029599792
4700 4700 1 0 1.8460995687787978 5.1207757120323905 1.3924663728014908
4701 4701 1 0 9.047395755024079 11.25827203711285 2.1203798742195126
4702 4702 1 0 3.2998331311227016 6.906179866209536 8.814374923174897
4703 4703 1 0 1.479937969718034 4.532902707791109 13.853555408592499
4704 4704 1 0 11.486260746549913 3.310379690426979 12.40400496138379
4705 4705 1 0 3.0931722465075846 0.3092472072738432 3.381750761303416
4706 4706 1 0 1.4567711528176095 12.342772675779145 13.978068480924458
4707 4707 1 0 5.306116410920597 5.827359159378195 5.31766016451089
4708 4708 1 0 5.827201836210409 13.574304729323842 3.970152998082048
4709 4709 1 0 8.09433153898746 8.19654598926035 8.987286061509351
4710 4710 1 0 6.570638720552144 8.317103640803696 13.394971509774516
4711 4711 1 0 11.271192588943585 7.133580829667667 10.264022252516504
4712 4712 1 0 9.474219418056828 13.405723402178056 13.672534755695066
4713 4713 1 0 7.64785563495184 3.697431813899233 13.71624621940477
4714 4714 1 0 3.376968077303689 2.6183333414244925 2.036341736883362
4715 4715 1 0 4.491989823551759 0.3104602184747027 13.408284676036912
4716 4716 1 0 5.48382597217591 5.116975504151207 11.493252949914634
4717 4717 1 0 11.307737276607195 5.175320926792035 11.59687630347201
4718 4718 1 0 12.624002921828229 12.165169895776232 2.836726912378539
4719 4719 1 0 6.500708830838905 10.718675117807864 8.916858118971852
4720 4720 1 0 9.673585444744278 6.6362746729208855 2.9035093194294297
4721 4721 1 0 11.238813693115416 3.79867691040396 4.1594385700386
4722 4722 1 0 11.649491794522486 13.127457616812375 4.885094435951659
4723 4723 1 0 11.276252034735188 2.890063920295184 0.34707701335333274
4724 4724 1 0 12.945908370474038 7.4791234790939205 4.495441955131152
4725 4725 1 0 8.348395634645597 0.915271950380703 12.696451395417087
4726 4726 1 0 9.722632118266624 11.703062814067966 10.105478219478528
4727 4727 1 0 7.3345937483639085 13.667205479710907 12.0445485099946
4728 4728 1 0 5.065082044787718 4.10848685113729 7.071056506032808
4729 4729 1 0 8.770457373009497 8.659329446219836 10.725332962179056
4730 4730 1 0 11.182446044782752 6.313344391205396 9.43040383980914
4731 4731 1 0 13.347229333111327 7.419598267847778 8.483408770909353
4732 4732 1 0 7.1967121479326694 3.8862215786601904 7.762951302194638
4733 4733 1 0 5.320281625592347 2.917950054496971 5.463645552418182
4734 4734 1 0 3.498740617704507 5.5725124848388825 6.783622971065051
4735 4735 1 0 1.8325759960176833 12.379364220733201 13.846065310444846
4736 4736 1 0 8.533370757879341 6.521048944926156 11.762794329072102
4737 4737 1 0 0.4329609586344125 7.140199008346387 1.1830412036087012
4738 4738 1 0 2.397397593578444 0.4549853281109182 9.188441663501674
4739 4739 1 0 12.341367221172458 12.191963059624337 12.753943661996813
4740 4740 1 0 4.080760792255945 3.0308597229763334 12.033705313766417
4741 4741 1 0 3.0616448025989227 1.174301384202498 6.155923235600791
4742 4742 1 0 12.453246446592074 13.910414302181351 12.18747054675676
4743 4743 1 0 13.386052560773475 4.870148017744076 13.710998120464941
4744 4744 1 0 7.6133518824645 13.803137843883931 6.113100110063279
4745 4745 1 0 12.959281871025512 0.17065293441386642 1.0690604237965282
4746 4746 1 0 1.2944377814351828 2.8988522526845864 8.7489231922893
4747 4747 1 0 5.312908161950792 0.850140910989378 11.462284860292497
4748 4748 1 0 3.7785899067481887 13.137315426140502 13.534244732680824
4749 4749 1 0 8.762177543182865 4.234740610931524 5.205953271648504
4750 4750 1 0 4.631319399178816 11.740957691283716 7.946704700428707
4751 4751 1 0 8.26505459275247 12.667624920203414 10.995980410968135
4752 4752 1 0 7.660199703504963 2.9394678522957647 8.232530583721688
4753 4753 1 0 13.016290306255364 10.086146565062716 10.409686658020838
4754 4754 1 0 0.9672170407648062 9.778116510739604 5.966667162906791
4755 4755 1 0 0.6445910898042844 4.389436401422553 10.806451786681095
4756 4756 1 0 12.311884711409828 7.059075161996684 9.985791100424764
4757 4757 1 0 2.4734925646716475 12.864636325449556 2.2525805002612196
4758 4758 1 0 4.645054776834027 4.573157105631952 5.586125573520859
4759 4759 1 0 4.066813409464398 0.20790901402217069 8.195931031437153
4760 4760 1 0 10.015217219008164 0.3792524991582283 3.4013866307172784
4761 4761 1 0 11.532151016032925 11.56064361165676 12.36301569043006
4762 4762 1 0 1.3098899939962396 9.280256484412686 9.359197204235027
4763 4763 1 0 10.48212926292347 0.13868644230958174 6.145945024979864
4764 4764 1 0 12.047069874836703 7.159203379596444 12.38826657961897
4765 4765 1 0 8.211654973959247 9.294214128028925 8.375016016605207
4766 4766 1 0 8.377267004582013 9.814962193501954 9.160459595657978
4767 4767 1 0 9.785495446731495 0.7958600252892728 1.8056782784442909
4768 4768 1 0 7.006222498994317 2.5375831938501157 8.72623128898974
4769 4769 1 0 0.5139812946767081 4.970803724499588 9.099634060276882
4770 4770 1 0 6.860594615889629 0.6275142804995723 3.742494795607054
4771 4771 1 0 9.280226395730342 2.643217572328142 5.111686464063988
4772 4772 1 0 7.672524774823926 9.490555639969969 1.8578495143376361
4773 4773 1 0 10.77255689064888 12.761421986886955 0.29822740948394083
4774 4774 1 0 6.232592672323515 8.346293355279034 6.455492420390993
4775 4775 1 0 12.359240182543846 4.571460118314218 4.354774307972764
4776 4776 1 0 7.913595988670669 0.9168737636852458 13.830100284433541
4777 4777 1 0 4.784082944498201 0.42397700523488024 1.0986282796349676
4778 4778 1 0 4.67086534562352 1.7685285885927113 10.4331950663929
4779 4779 1 0 11.85184072277408 12.546339833823437 7.227372975956968
4780 4780 1 0 2.5787484455375216 9.544450495008194 8.522037027274873
4781 4781 1 0 1.9473304171410308 2.7591612691639877 8.053326991600484
4782 4782 1 0 8.597458950771447 3.431258204332369 8.22997853479123
4783 4783 1 0 11.645104082112017 13.060452882816083 3.013796210405315
4784 4784 1 0 3.150763801178463 13.821105570339371 3.310477170004967
4785 4785 1 0 7.1951222976366855 4.069681088491508 10.59092599226205
4786 4786 1 0 6.541232557468004 0.07672112116975162 7.115015370391596
4787 4787 1 0 4.156480835972274 9.629074956175822 1.3430921466817594
4788 4788 1 0 0.44935283374730123 3.0874949663564326 3.2218933840958397
4789 4789 1 0 8.691146840362617 9.603312479697427 8.210617007343036
4790 4790 1 0 4.098533285103488 4.352828990946011 0.6774793317696703
4791 4791 1 0 9.792557468840286 12.902852913550817 3.181795804463944
4792 4792 1 0 0.3400570785639979 11.267095873117077 6.1906390372268145
4793 4793 1 0 11.49691251840478 6.780514876807443 10.928583757683365
4794 4794 1 0 7.578229564934548 12.75268292127159 13.755987672904695
4795 4795 1 0 0.37901499906517155 7.368964033349437 8.183160326739172
4796 4796 1 0 2.658837338672227 5.2535176996669675 3.3350927591511836
4797 4797 1 0 7.6905490693998875 9.360037808709173 11.768089000852841
4798 4798 1 0 6.477014228039076 10.166906312948166 0.3713726928923869
4799 4799 1 0 1.1158855743539697 6.99250946750973 10.780431311188394
4800 4800 1 0 8.976516003289735 10.265457792320946 3.086313775594429
4801 4801 1 0 4.897599506511804 2.841538393700808 13.649460447374285
4802 4802 1 0 1.7092258509664169 13.86326145514801 12.54257688007936
4803 4803 1 0 7.08106237434345 1.1980622752923347 9.522320888477836
4804 4804 1 0 7.152382716046094 10.698600500125995 7.5520053973376005
4805 4805 1 0 9.04838162779636 0.26032562046419433 6.279795709318223
4806 4806 1 0 2.218791702778985 10.997881249880743 5.1616702606806495
4807 4807 1 0 4.813191230334494 13.594609187753765 11.352918536433641
4808 4808 1 0 8.139730912653068 3.3071370773782784 5.910814247735479
4809 4809 1 0 0.6150094678779491 8.812194797067137 9.601666727529599
4810 4810 1 0 12.900411724835939 9.570185800928398 2.2624732114422748
4811 4811 1 0 5.696231943535356 10.949596724832846 0.0030637255416895268
4812 4812 1 0 8.175526463803855 2.4075147589322863 1.146950375859326
4813 4813 1 0 2.6581524420466502 4.165119300726018 5.61052473549807
4814 4814 1 0 4.18326654057063 9.188069284883037 13.751577509793874
4815 4815 1 0 13.796688339041484 13.193340488448412 13.988802473561835
4816 4816 1 0 4.556519674950529 0.7832885759274966 10.05790092526384
4817 4817 1 0 3.5834060285689837 0.30671230580660136 12.107373690177168
4818 4818 1 0 5.541367820426211 2.1693245428727397 6.08670177293539
4819 4819 1 0 3.887086133867429 0.16340231059636245 0.19422797678587028
4820 4820 1 0 12.104547548309041 8.89319376816096 8.52735557931172
4821 4821 1 0 3.3975149882540285 13.879715412326465 0.4055548800096221
4822 4822 1 0 6.346871200146581 13.896266229385473 2.195105036941452
4823 4823 1 0 8.863891078283588 13.99864455977493 1.7516698375124284
4824 4824 1 0 7.789329268890727 13.526000702253684 4.759602830434339
4825 4825 1 0 11.578080539473124 1.8443900161663735 10.833031971141537
4826 4826 1 0 9.524277139485255 12.648765541554727 1.2538088974709791
4827 4827 1 0 10.16609125223909 5.1126287171653635 7.2271844928836035
4828 4828 1 0 0.36558656063766704 12.405759753403082 8.480856130015184
4829 4829 1 0 12.938682571921793 10.734737364213165 1.8018403414161166
4830 4830 1 0 2.7007731474465313 11.289484374396743 10.43859689663685
4831 4831 1 0 13.167313924759 9.383478877403247 3.0146812363418714
4832 4832 1 0 7.378469149608172 12.221265551702444 11.901452701189697
4833 4833 1 0 12.12982997084901 6.443893030496956 6.486683795629237
4834 4834 1 0 5.090818525913561 5.708472875740059 10.534032298106547
4835 4835 1 0 5.882735017096288 7.938030754551025 5.0718238119381525
4836 4836 1 0 8.207772803031533 3.9690852117920006 3.8183588201431857
4837 4837 1 0 9.15230234226366 1.8054533031057853 8.802572192441303
4838 4838 1 0 9.814473087496605 10.803375705097416 12.096725978831435
4839 4839 1 0 8.41575201379294 8.007607962320176 0.7248298413740119
4840 4840 1 0 1.3168807244573282 0.13787574276347042 4.4053899356508675
4841 4841 1 0 6.920520385457759 0.7090070342287208 5.038049231560888
4842 4842 1 0 0.8751132796902789 8.907398755005117 2.8159451781197267
4843 4843 1 0 3.4863929367123996 5.935835942164155 6.730979964796791
4844 4844 1 0 4.594773250221587 7.704523522831258 9.499697384816256
4845 4845 1 0 2.262650913505027 9.056432069843993 1.0695805513859984
4846 4846 1 0 5.485568983841665 4.367611819525319 9.637327325563604
4847 4847 1 0 9.747242242367633 13.252918687519312 10.500329103469456
4848 4848 1 0 7.303497311618545 3.757470167182484 6.370462968500268
4849 4849 1 0 8.058587431933885 0.10930983769418508 6.254744752049625
4850 4850 1 0 8.808181370812685 12.628597235671709 10.402242607819453
4851 4851 1 0 11.105743817538606 13.595133001325983 10.225602030383559
4852 4852 1 0 11.366777555214233 12.89580069861639 3.7391306459818887
4853 4853 1 0 8.40289715418604 9.97150545308172 14.002396506400615
4854 4854 1 0 11.176969752565638 6.972608549838412 0.7595542261803311
4855 4855 1 0 1.8767518731203139 4.178539105718841 12.437410861517533
4856 4856 1 0 8.530700695823892 10.93174323420296 2.083809896024516
4857 4857 1 0 13.066754320566996 1.7546030085144073 8.875313691062832
4858 4858 1 0 13.636606313796921 7.978102188471283 8.285571039197544
4859 4859 1 0 6.0748040784588815 9.981354417589284 8.69159177026038
4860 4860 1 0 7.173736405089748 11.074590286099449 5.288022524337999
4861 4861 1 0 11.977101775980538 7.209940637154107 9.537884721210313
4862 4862 1 0 2.4985303550552826 8.706285525680522 3.9804839358225834
4863 4863 1 0 6.087471330613271 2.3902135161152698 5.771700697554736
4864 4864 1 0 11.938876347952739 10.90203591929333 3.0508538522167092
4865 4865 1 0 5.399387030046818 3.510104990718334 7.527907348811075
4866 4866 1 0 8.747951279565136 9.3470258024138 2.82824911946179
4867 4867 1 0 3.0599358373891534 2.988518152673136 12.17240647442475
4868 4868 1 0 5.952621222829374 12.93753718212206 1.9426978186806356
4869 4869 1 0 1.1404257371381588 6.828389026277644 12.039780532174035
4870 4870 1 0 11.996196748934588 2.1015124339064055 12.10742301642421
4871 4871 1 0 10.899275841999236 5.856454341107912 10.624503088651295
4872 4872 1 0 4.208696466349295 3.596977773437968 8.89110024811964
4873 4873 1 0 3.30482792695125 1.0576628498818788 12.860616982092301
4874 4874 1 0 10.627814906752944 8.354058112759978 0.1553824934254744
4875 4875 1 0 0.49276230059416937 8.252156217799595 9.175863844214977
4876 4876 1 0 1.7503685653498229 0.2368717413867606 5.4489921870424185
4877 4877 1 0 12.555569842014533 6.562409982452706 1.0027819690591913
4878 4878 1 0 10.69863972215384 6.884808065549632 9.880899300000664
4879 4879 1 0 8.05706521546479 0.43235652260298635 7.560905563128194
4880 4880 1 0 7.257519781763076 8.791913473354311 6.535012868503766
4881 4881 1 0 3.694283575180585 5.150503864127541 9.166373166391818
4882 4882 1 0 4.75433435888258 7.8082721576378775 10.163021496366598
4883 4883 1 0 2.520522704767511 12.984209841841933 0.3465236543709088
4884 4884 1 0 10.116326071089398 13.959921454384839 1.7655590983267273
4885 4885 1 0 13.677509491906646 5.5153928096977145 12.852609811716384
4886 4886 1 0 9.21562630665621 13.722741819201724 0.7027795270698259
4887 4887 1 0 8.547794696374343 2.48190506331064 5.6570157447706375
4888 4888 1 0 12.53932514857922 9.104868548008394 4.935897325487176
4889 4889 1 0 5.880804694321113 7.2780995579370185 4.46763003017966
4890 4890 1 0 8.373900756104177 11.339674060931745 0.34600500355811287
4891 4891 1 0 0.3646076724399485 12.448296182945805 8.727265663229575
4892 4892 1 0 1.3358978188765236 0.49476318360770477 4.1048631655647
4893 4893 1 0 13.737922582627583 0.2131205239756504 2.9476108757267885
4894 4894 1 0 10.864465811058128 7.1590585048153175 6.4075775757775215
4895 4895 1 0 4.258838262388482 8.378624800172222 2.3768259998793826
4896 4896 1 0 5.501806376495291 12.35932666512577 12.446900686296935
4897 4897 1 0 13.544301895341627 0.02246962329396289 6.988578294889784
4898 4898 1 0 7.545438492096448 10.328133793079067 9.567971630913389
4899 4899 1 0 13.832793205967057 6.706681088037239 11.146551073232372
4900 4900 1 0 11.246064644490671 11.67950142111145 7.517516892451022
4901 4901 1 0 7.264149184867079 10.43577911437892 10.69556030906373
4902 4902 1 0 5.989847090972667 0.7313642923635093 5.692523359979165
4903 4903 1 0 2.170035001168297 2.961275253931113 12.078313469586847
4904 4904 1 0 13.192975548443778 8.860070052438756 8.730146079027074
4905 4905 1 0 2.3401680966165657 11.134577183905227 10.354444496886996
4906 4906 1 0 3.537786910707847 7.154089382803517 8.809405237213582
4907 4907 1 0 4.628633385999912 0.50241065668482 10.718564512342434
4908 4908 1 0 3.3918263174017937 10.040136964308807 12.583851567924356
4909 4909 1 0 6.7642487570944265 12.861928818960916 3.7300570454461206
4910 4910 1 0 1.7115948891236101 8.288572634499904 10.291451126486121
4911 4911 1 0 6.719567271844183 4.967152901448721 5.1773440128838715
4912 4912 1 0 8.639569342396356 7.9220378871676695 7.553545670652659
4913 4913 1 0 6.910312761546165 4.310418838790595 3.351139824224497
4914 4914 1 0 7.866150751112466 9.638953753818917 6.264362021124655
4915 4915 1 0 6.67083379178223 3.0672627818661153 3.6897226808535724
4916 4916 1 0 4.231647828881353 2.170816954881952 4.044437435955263
4917 4917 1 0 2.3452107458119937 1.5197284597343788 13.399117167320519
4918 4918 1 0 9.030983338145157 2.0777491417660636 2.7814957989321143
4919 4919 1 0 12.394309384173607 8.914115902872378 10.849603899356133
4920 4920 1 0 2.1620309553332464 13.223220862321696 12.169827475812617
4921 4921 1 0 9.329069146173815 12.519659934051534 9.864720728594754
4922 4922 1 0 8.947780596789487 13.537203059910105 13.679842208160956
4923 4923 1 0 3.112036678403067 3.3864428108635756 13.64689985695385
4924 4924 1 0 6.9408374263950146 5.33446917426214 12.016768489470616
4925 4925 1 0 8.735499812941312 5.934843463898276 13.515960199926287
4926 4926 1 0 5.914092528639 0.4483848807763809 12.977551830714312
4927 4927 1 0 13.070815322190182 11.41715947686006 10.355079007164104
4928 4928 1 0 5.600581950528758 10.426594504630241 4.1057769225708505
4929 4929 1 0 2.4807643185153223 4.235838536731188 6.783017676759112
4930 4930 1 0 4.29822737620779 10.049654979845458 0.050459461756415615
4931 4931 1 0 13.504640058754234 13.184073167804973 13.937818136774702
4932 4932 1 0 4.756772743364045 2.048385816429417 2.463695649552847
4933 4933 1 0 1.1916568773267617 11.658059888205022 10.111770614882634
4934 4934 1 0 0.04057664428132256 13.827106606770855 2.525250255534686
4935 4935 1 0 13.978321532710428 0.02074584052951551 10.36333631863251
4936 4936 1 0 12.09301149568932 1.5364183074962556 1.8316066237589923
4937 4937 1 0 13.916888211552076 6.561605968884115 7.178797621951461
4938 4938 1 0 3.859224197764763 12.387503492624404 9.223505648985316
4939 4939 1 0 10.03963159538177 14.060027408882227 7.057062451043114
4940 4940 1 0 0.13124148909470007 10.504716455020926 7.9588559018736635
4941 4941 1 0 4.472124408619148 10.858875033436762 9.561184885418358
4942 4942 1 0 10.915470588843323 3.8670716496827193 0.4083731936853787
4943 4943 1 0 9.680314250609651 4.609464699576805 6.6539316299814795
4944 4944 1 0 5.035528781916116 2.86840619178675 0.44567709880776957
4945 4945 1 0 13.597580634215399 10.15771894872198 8.523125871425421
4946 4946 1 0 4.500892673537873 8.190267759871649 1.497819779265164
4947 4947 1 0 6.907749054973819 4.855979064241667 1.6184954985748075
4948 4948 1 0 3.647450537283108 7.093036615538803 7.41727724854221
4949 4949 1 0 0.6696905200480929 1.4979273832904305 9.013184064585571
4950 4950 1 0 4.022302480986275 2.163263546571936 11.796174682711392
4951 4951 1 0 2.8905529209362903 3.891347061669254 8.104692602294977
4952 4952 1 0 4.817652255254653 4.662900812181869 9.798516862309473
4953 4953 1 0 8.273218763202737 12.201971320445113 11.153407108854385
4954 4954 1 0 5.057812745218351 12.87078880956735 7.331357339312585
4955 4955 1 0 11.94980910957988 5.496976606282566 3.257027912064925
4956 4956 1 0 6.61550277338844 5.5697284589259075 4.107785969180643
4957 4957 1 0 2.5535517086550437 5.111035564472006 4.9157194366244825
4958 4958 1 0 11.090503234268294 8.18868701669167 1.545195062859716
4959 4959 1 0 8.627771546403725 10.170041987778319 11.685553470520603
4960 4960 1 0 10.227071867803444 8.617326211288669 11.832685767567424
4961 4961 1 0 3.8498218059866365 11.072468957869772 8.301357943395013
4962 4962 1 0 1.3591724607089253 4.887037709435186 1.4474142102861043
4963 4963 1 0 7.9701049986253345 5.729455719987658 4.569750544494629
4964 4964 1 0 0.44874010803435843 0.43784622343155116 3.615574874464816
4965 4965 1 0 3.538275081695984 9.380855212713021 11.249728742578096
4966 4966 1 0 6.378235904870254 12.260902697930293 5.385655260749676
4967 4967 1 0 3.733233954844287 7.73199272606844 13.532924194506252
4968 4968 1 0 3.9525722835340478 7.739743051601681 1.076052288002665
4969 4969 1 0 7.524171680999946 5.278845437764302 3.8698452778191705
4970 4970 1 0 1.6651113686801136 4.674127036640886 8.970499004726763
4971 4971 1 0 1.9403785433228713 12.48002724885874 0.4004926618304611
4972 4972 1 0 3.14758403823975 0.579137368013267 1.8848921458469927
4973 4973 1 0 3.7267476326791256 7.567795536120154 13.98217742414319
4974 4974 1 0 13.962907864929543 2.2219953183192955 13.959339981532406
4975 4975 1 0 8.021463385634545 8.445006353945873 12.99450730514723
4976 4976 1 0 3.7155543216647033 11.16650698674515 7.311053218224011
4977 4977 1 0 5.072225837080462 10.778653774306722 2.1109983255432656
4978 4978 1 0 4.578319562604561 10.760539212431741 6.78275972122213
4979 4979 1 0 11.60280811312086 2.653390749111943 7.040393041129688
4980 4980 1 0 2.0528111224947145 2.1245926299447984 2.899323327237926
4981 4981 1 0 13.250169119955038 8.303924214853568 10.318101240601184
4982 4982 1 0 6.7518952864875015 8.092819660568722 11.124994264420424
4983 4983 1 0 9.298794024397816 0.9392981489245155 6.061361696591936
4984 4984 1 0 13.956220206292542 4.4899154305112985 8.208361618120312
4985 4985 1 0 8.704838973906488 3.003904401805322 7.561612430116713
4986 4986 1 0 5.625150770144435 0.9407382601193641 1.7982011075787725
4987 4987 1 0 0.041399038214342945 10.298960224864327 3.3361216647898133
4988 4988 1 0 12.243105197093561 5.4809272236157165 11.506344161875997
4989 4989 1 0 9.464690913500924 0.3729998642594274 5.9838487257760935
4990 4990 1 0 1.526732753654748 8.269059965645763 13.342049741201922
4991 4991 1 0 6.54542197986063 4.877274395390069 0.49881953381655403
4992 4992 1 0 10.609940598352443 6.37066628077041 13.785637263033674
4993 4993 1 0 8.579197067449575 12.19567139682239 5.589054908408129
4994 4994 1 0 4.449653663821131 1.780704499677135 5.402169314692744
4995 4995 1 0 12.593572512728556 10.601527578589371 14.039675668262761
4996 4996 1 0 8.360662168563568 13.892910037271442 13.072309897067141
4997 4997 1 0 12.531953906996742 3.943044416564261 8.123432176879065
4998 4998 1 0 6.832361303393642 6.049375076294556 0.5218710677837024
4999 4999 1 0 1.3056556808047184 8.222701965005337 6.832318318847196
5000 5000 1 0 9.542033689738034 10.39154178709852 12.027621825870117
5001 5001 1 0 13.523838488454196 13.883776466764216 11.339970882058621
5002 5002 1 0 8.48038652206596 5.671081442639133 6.058892389314343
5003 5003 1 0 8.736000055837964 11.912413610356774 6.553148835286838
5004 5004 1 0 9.942751010048138 7.838088831333323 3.596025188071413
5005 5005 1 0 5.858598605909263 13.220626843776326 2.189511665915956
5006 5006 1 0 4.743405345412016 10.96797801167464 2.7539003608523833
5007 5007 1 0 13.281093926045962 8.24202848481435 6.2579231561610165
5008 5008 1 0 2.343902670897279 8.400093311440207 10.567864972656858
5009 5009 1 0 5.276084217962443 1.2394327395605131 11.556920106055909
5010 5010 1 0 13.365313461505645 11.154736608295037 10.08606752342819
5011 5011 1 0 4.393673138682965 11.082370085922207 13.304852036541734
5012 5012 1 0 5.350290718489207 9.968914036147924 11.778969315588297
5013 5013 1 0 12.943349460380187 2.337810273026764 11.62219658766631
5014 5014 1 0 7.694960655874351 0.06338557535542204 10.875105343508816
5015 5015 1 0 6.927990560481323 13.45346976767305 1.432785178978711
5016 5016 1 0 0.9050054085502548 1.1682986589248332 2.783683143575201
5017 5017 1 0 7.6742039129346455 9.817051798422714 8.80245048852083
5018 5018 1 0 8.285776052115594 9.997489358600731 3.7045550666385516
5019 5019 1 0 1.1424647435549533 13.177197214431022 9.928366107238569
5020 5020 1 0 5.733466079413856 13.195692721498805 5.364698003860545
5021 5021 1 0 8.149655210602416 3.275327056727714 0.78003951179911
5022 5022 1 0 14.055479677504017 6.519106028161629 13.396746031377894
5023 5023 1 0 7.4395617154199805 9.763994713279294 0.45847423769884726
5024 5024 1 0 3.561780143537046 7.265301295608608 4.937687109999772
5025 5025 1 0 2.888835863032344 0.35253188769171234 2.3833810766549894
5026 5026 1 0 13.141468335719717 4.801001292177934 10.720102833751133
5027 5027 1 0 6.235319431662837 5.100280613849559 7.887004804196585
5028 5028 1 0 9.359913899719498 11.93008856150812 9.897550034655158
5029 5029 1 0 10.219511566490626 11.396006359363192 13.892020410063354
5030 5030 1 0 4.423152082125129 1.70968066033629 5.707134837851466
5031 5031 1 0 4.897429357558413 12.918417092883917 13.117421750401457
5032 5032 1 0 6.05119068537268 1.6377518793500614 0.11090978503367693
5033 5033 1 0 6.540178981559111 12.507879527128349 7.141782355587889
5034 5034 1 0 10.972652858096746 2.7848037342842757 13.316410891649987
5035 5035 1 0 6.6127073577059425 1.5198952602702391 7.965938915388742
5036 5036 1 0 1.9147961233868884 6.957031714500247 5.1613076310550365
5037 5037 1 0 3.939259427690738 4.840722053686168 4.994371520241975
5038 5038 1 0 8.03139086182792 12.55833799432735 3.5394121495059365
5039 5039 1 0 2.1249715248508405 0.5642770276823211 6.855571037580827
5040 5040 1 0 5.199093643160142 13.988897835491745 5.087060942648151
5041 5041 1 0 5.644398427937684 6.188531735446949 11.944216372955074
5042 5042 1 0 13.074869802133437 3.3597797438189754 9.732045247483342
5043 5043 1 0 1.8620082597426892 4.407116002615567 8.468748308513886
5044 5044 1 0 2.4187876492591105 4.9725665089741975 2.84715347449217
5045 5045 1 0 6.573548664994732 11.500454542720178 3.0371387473685503
5046 5046 1 0 8.530290003125275 13.271470312210951 1.6712563608667492
5047 5047 1 0 3.088338311815188 5.372598972321212 1.7464982578486876
5048 5048 1 0 1.2416934432850268 7.835027180902761 10.335608214416256
5049 5049 1 0 11.778744849932595 0.5748951531357048 4.441929589018765
5050 5050 1 0 2.2060756874637 1.865979773674802 5.622480299100727
5051 5051 1 0 8.68208000574654 4.316305251026918 13.446943448303266
5052 5052 1 0 1.7480895981935969 4.452612210153258 0.8924164897559848
5053 5053 1 0 8.651821288316246 10.103242356109405 4.739936070597624
5054 5054 1 0 3.604182120416421 4.2727945201377135 9.379343464744084
5055 5055 1 0 8.89838276913104 7.358599245302993 11.589798875100163
5056 5056 1 0 2.5653555649935216 4.876112653405575 11.255113214499666
5057 5057 1 0 6.64551323489107 13.938177713990978 7.908737534305228
5058 5058 1 0 2.323177442865592 2.1148862754054236 4.545886100050265
5059 5059 1 0 1.1345910479683976 4.389156579811303 9.608303345696378
5060 5060 1 0 9.510326060493162 9.120237799836083 0.12662525712664033
5061 5061 1 0 2.8335181059228782 10.189805782144976 0.25019208350051475
5062 5062 1 0 14.043335673267762 0.9729159228150761 4.448402850591312
5063 5063 1 0 13.692076272057193 13.54135191194788 13.045942165172722
5064 5064 1 0 10.198100790265082 7.415964499704476 1.3374746029245195
5065 5065 1 0 4.244013959880189 2.083592668876515 4.635662833847594
5066 5066 1 0 11.448755516003114 4.682349254878336 11.024305096085932
5067 5067 1 0 5.1750515724969315 6.624377543899451 11.21480123148324
5068 5068 1 0 1.2338669881380264 4.908210078360054 6.562223604991816
5069 5069 1 0 2.1246665126279436 0.23413267247477101 4.319493757750392
5070 5070 1 0 5.2592590985110075 11.318794277809982 2.6208410866714535
5071 5071 1 0 11.847910447854362 0.3122028324853233 8.864000021266003
5072 5072 1 0 11.60050605315288 8.86177185525346 7.50991512785543
5073 5073 1 0 1.9557350742694557 3.0047426104086545 5.4056837693627555
5074 5074 1 0 9.968217254733634 10.177877068591668 5.293436656641858
5075 5075 1 0 11.507410097744735 4.450439044551297 5.689691618496159
5076 5076 1 0 6.741037149427032 11.9470382955564 6.110339739688433
5077 5077 1 0 2.18762521939698 9.920504946598735 10.369409201663201
5078 5078 1 0 9.094683440284806 0.4189012438413384 11.81644944482987
5079 5079 1 0 2.8350971294672016 14.027979919544977 7.753651077102734
5080 5080 1 0 9.603560466838688 11.784762344309689 3.4402607974741732
5081 5081 1 0 6.582164344319121 5.972029305808828 11.326016527195653
5082 5082 1 0 9.683343559256015 13.704347804822213 11.258969754920134
5083 5083 1 0 3.5796821096038127 12.546687047339484 0.14853813719636147
5084 5084 1 0 3.651091233549712 7.117152486046678 5.347854957294479
5085 5085 1 0 2.682038634485911 7.59587406443685 3.6153268957419247
5086 5086 1 0 11.592666533338804 4.589880266161069 9.33044985825789
5087 5087 1 0 9.50169444358714 2.4288378289512687 12.118446820029494
5088 5088 1 0 4.213859374487192 3.5905128717924324 0.5696060659691782
5089 5089 1 0 0.09320014258865025 1.2699534983767644 4.210217570469497
5090 5090 1 0 2.0487827816974593 7.356095714819972 3.1896643151295545
5091 5091 1 0 0.23469384784554098 10.611177181532588 11.403972919887758
5092 5092 1 0 9.471149206467915 2.1416655838389467 8.022063190855002
5093 5093 1 0 8.752456754891925 9.82812031268404 5.61920453094135
5094 5094 1 0 1.099437200082774 13.774878769212446 1.760699990455331
5095 5095 1 0 9.411935507172979 0.9079425459367353 1.5679394543345544
5096 5096 1 0 9.056128800665489 7.252288511680614 5.772708216919517
5097 5097 1 0 12.063750693657642 0.0024486403871829083 6.53245344538575
5098 5098 1 0 11.682978665790342 7.057516696067358 12.47311209063908
5099 5099 1 0 7.38278919203096 13.496584513108528 6.32240662020232
5100 5100 1 0 11.077787934593081 3.8205261345892123 13.387584370983333
5101 5101 1 0 5.592741361672254 13.9325885311713 11.960250428210049
5102 5102 1 0 8.508156895513006 7.357278859925656 13.61588834361524
5103 5103 1 0 7.362399717026362 2.436988028506741 13.0629714702348
5104 5104 1 0 1.4480509957899188 11.859535137813591 13.870888402138466
5105 5105 1 0 13.696914238081465 0.2526736722417802 4.220114473433767
5106 5106 1 0 7.148206931185693 1.5121500000159778 1.979644778503394
5107 5107 1 0 7.738777863127584 2.0504474635878776 8.199507851838776
5108 5108 1 0 9.832869184749665 8.339815884175009 2.7065470736284416
5109 5109 1 0 11.257846603454217 12.06880690303803 10.920196374231455
5110 5110 1 0 2.8003701090605664 9.818127890650524 0.7153573206074572
5111 5111 1 0 6.580866974858803 4.749603632997277 5.474420693431039
5112 5112 1 0 7.396754805246066 13.324139755551009 8.382572178814353
5113 5113 1 0 2.1294494193598252 2.623067120892253 2.8525786327868934
5114 5114 1 0 6.786955220057738 10.480742447966188 9.469042551524797
5115 5115 1 0 11.381629839872259 2.773787005188794 5.49007069706613
5116 5116 1 0 1.9339355786439296 12.171450775523859 8.389098497722998
5117 5117 1 0 6.717087636011085 0.6674766011197429 3.715532276813119
5118 5118 1 0 0.2811211690659236 0.6324376878007966 6.979025317219374
5119 5119 1 0 7.568058977438522 0.09286646952962344 0.11546354793540183
5120 5120 1 0 8.765895482474713 9.181153874120898 0.011373077590707046
5121 5121 1 0 5.581400257874518 3.5208841481130984 6.046301383906342
5122 5122 1 0 9.899578867537988 10.768932273654439 10.821829759597287
5123 5123 1 0 6.759612219993064 10.64988337364716 0.17039339649830518
5124 5124 1 0 3.125550540391273 0.07077600493770317 7.624823383052622
5125 5125 1 0 0.041714449513133245 6.462744018158103 5.387054576260321
5126 5126 1 0 13.97221243681191 7.70312568348182 7.512641520416442
5127 5127 1 0 0.8263094171426284 6.72782890314143 12.204403953726908
5128 5128 1 0 1.4729766152594606 10.939676098933164 11.91676847770547
5129 5129 1 0 1.1038917446939158 2.1768211603427643 3.7870893290566037
5130 5130 1 0 0.6715354882539315 1.1330547790577725 9.981695886765014
5131 5131 1 0 10.854039937965059 3.309514327630751 0.8752851861095315
5132 5132 1 0 5.128302459442257 7.9950251591445864 0.8576189039202112
5133 5133 1 0 1.1254948354798442 12.351335289101808 0.3186441538264973
5134 5134 1 0 9.116833777264587 5.898724977884092 13.472107666901094
5135 5135 1 0 7.605472215350824 1.1841992760858358 12.471059662926052
5136 5136 1 0 11.50866129289619 0.3095227817176295 0.0563375206807234
5137 5137 1 0 0.8718986161618106 2.631982158266689 8.154792645185653
5138 5138 1 0 8.603805266982357 10.765761207895602 5.894928766339245
5139 5139 1 0 6.988444910372691 12.79442155240137 9.789306296439982
5140 5140 1 0 3.7932182537034853 1.241765754023952 10.722279091912402
5141 5141 1 0 5.496527050368464 10.254064617547565 1.4114065607149981
5142 5142 1 0 10.104902467649518 0.17901360748342707 6.098431854350108
5143 5143 1 0 13.338965511218243 1.4597744194571294 12.135306867569382
5144 5144 1 0 7.739038742781366 0.3169294767877936 5.582611287352184
5145 5145 1 0 12.282241444639284 7.269072022700689 11.462650542069449
5146 5146 1 0 4.022203707454018 10.398405133572224 3.9331988931872295
5147 5147 1 0 7.993390501298852 1.2739685519996395 11.429097465406265
5148 5148 1 0 7.570992429096293 1.5726571209861577 2.9847756585451553
5149 5149 1 0 5.629214913322102 10.072855006450734 4.336369539011001
5150 5150 1 0 1.2693765835291169 12.371864625257805 10.558032917889255
5151 5151 1 0 12.888895850280935 3.4972904741516992 4.161662341165765
5152 5152 1 0 12.171771543747987 10.838139826435203 2.0539711504553706
5153 5153 1 0 9.482002701764218 6.040970634614062 10.38127306475562
5154 5154 1 0 8.738251965799833 3.5034495796857437 2.822866990596567
5155 5155 1 0 1.7144649628216515 0.6606033936731671 1.1918435507121545
5156 5156 1 0 2.021443257156042 8.168085775113108 4.002820175445768
5157 5157 1 0 13.856755988587286 13.59876477685312 10.176130805334344
5158 5158 1 0 7.098314240293638 6.998254885031183 11.715242098496416
5159 5159 1 0 13.377511002326893 6.4069862277617595 11.388476294879945
5160 5160 1 0 3.7565550912295693 0.3161713485673966 7.923204182469857
5161 5161 1 0 5.465616361585281 0.473364889172648 5.646485128091325
5162 5162 1 0 8.729768539687328 8.92212257742622 11.04221609332144
5163 5163 1 0 2.221594908336283 7.312876385000907 7.038655330629258
5164 5164 1 0 6.894106794958127 1.4969076688788023 0.9361776192740441
5165 5165 1 0 0.8459762002295872 7.297502611521918 2.9667752233081446
5166 5166 1 0 10.007783702796532 6.881269414300972 9.877902392850585
5167 5167 1 0 12.550979985707638 0.324857450021922 2.2976555202377114
5168 5168 1 0 0.6007095437975382 9.113769046978613 9.505021664147215
5169 5169 1 0 5.738368466558682 12.520614170055744 11.31727228169898
5170 5170 1 0 11.928548787431678 11.035004140006524 2.084810594532364
5171 5171 1 0 13.233642028764889 11.023104753477984 11.77548224842368
5172 5172 1 0 11.019490275589256 4.248604481293481 6.843655051163414
5173 5173 1 0 0.2853041294875088 11.819566586779315 4.196103984897414
5174 5174 1 0 14.009777179481095 6.882097054339612 0.4283102484556506
5175 5175 1 0 10.300166484959478 4.298521091860516 7.367349409826633
5176 5176 1 0 6.458467617535436 5.50226776538818 2.414176222893861
5177 5177 1 0 1.5111286653682945 13.169534548989033 13.44240244969661
5178 5178 1 0 8.389521767839577 5.411951128804948 6.323440376465399
5179 5179 1 0 3.341025706314281 1.6487909685273558 10.130638388919635
5180 5180 1 0 1.8101379310264378 0.48794712130508877 6.958837984153291
5181 5181 1 0 4.702054458533849 6.288460328158022 6.7680182754033735
5182 5182 1 0 13.774395370861559 13.251995631343185 9.072238314545567
5183 5183 1 0 0.1134454790812255 1.3574546299511447 0.04118762303207175
5184 5184 1 0 8.554394799819308 10.121446816360395 4.265093747791726
5185 5185 1 0 7.2706689645222005 5.458164387761098 13.049507271862732
5186 5186 1 0 9.561210117297556 3.5185068090676284 3.348057402207697
5187 5187 1 0 5.052622727770728 3.26147376005483 2.6498485650806387
5188 5188 1 0 5.595594881158202 7.044078947623017 12.241349328460654
5189 5189 1 0 12.964410587807414 0.06737201289476549 1.12881984452242
5190 5190 1 0 13.465451096878576 11.2187169381035 7.255333972635587
5191 5191 1 0 11.757008065666383 12.331935658615 6.517403374166065
5192 5192 1 0 2.2822267914982817 9.122616087253814 0.36993867856284973
5193 5193 1 0 4.704788579636159 5.253583960284093 5.834638072546722
5194 5194 1 0 13.70888250511216 7.896015403418164 9.583593395521785
5195 5195 1 0 11.221181336955315 4.160503800871901 7.021199465689771
5196 5196 1 0 13.510619538736458 13.716186842722257 12.244353639294468
5197 5197 1 0 4.280652103149562 1.6261335822030838 10.62122325325863
5198 5198 1 0 7.539308449525811 10.539292492545028 0.04843851102784709
5199 5199 1 0 1.282176520232011 10.268787031578338 2.704527565959539
5200 5200 1 0 9.417588238742205 8.208316502523402 3.531765193140503
5201 5201 1 0 6.887014435935113 2.288049099647507 0.22252067337042325
5202 5202 1 0 1.3277275909717192 12.394618060842777 10.90788776923669
5203 5203 1 0 11.58564938080577 5.946878274396133 6.979584623256818
5204 5204 1 0 13.316867705750372 1.7296898699961185 11.49895146062948
5205 5205 1 0 1.0208890548102711 5.876586565763042 10.55999169527323
5206 5206 1 0 5.093330297168341 5.624506053414574 5.112898255839652
5207 5207 1 0 8.755188324080413 1.6112027492671062 8.878486776972984
5208 5208 1 0 0.7982426634086429 9.627364081980634 13.338368663041015
5209 5209 1 0 13.331827792496114 5.959176373034079 10.253796777087285
5210 5210 1 0 0.2806817395299205 8.024459887800989 2.2067803856596586
5211 5211 1 0 12.43808129435241 9.058292923540103 7.3281572721648045
5212 5212 1 0 0.10609626015783352 9.795225039536628 3.7059493236395373
5213 5213 1 0 11.717453403620409 8.14295350459225 10.090393799021404
5214 5214 1 0 0.4607781211925305 11.772527488767347 5.020923346574678
5215 5215 1 0 6.29523171440644 5.540104170773085 6.710337888743112
5216 5216 1 0 6.4067917632927545 12.652052880667883 4.926304379604009
5217 5217 1 0 0.9322382760178479 10.470951327406887 12.150420825459282
5218 5218 1 0 2.9353987814880904 9.168354186227004 6.653246322411981
5219 5219 1 0 10.429287608624149 2.0200460801902 8.579029607332306
5220 5220 1 0 13.853825518675944 8.862798048809895 7.156403778975748
5221 5221 1 0 4.0341671670496 2.2176644096044984 3.5381736130957266
5222 5222 1 0 4.862578064569515 2.0659550779991465 6.090765540149157
5223 5223 1 0 2.156696846230795 8.576359265731211 5.007565665205742
5224 5224 1 0 3.389409515978711 8.340380848602559 12.509521824111024
5225 5225 1 0 6.763713224343435 11.593211681953086 1.4916077413719344
5226 5226 1 0 7.03157109775262 10.355457972971704 8.16805093598756
5227 5227 1 0 6.551651238512935 2.662272396294328 9.385936984070616
5228 5228 1 0 8.891013211730582 13.23267815816547 12.800949969781689
5229 5229 1 0 3.535365381314456 13.593682504866397 5.4057951077713176
5230 5230 1 0 14.042599256488462 2.1613506789038794 13.4948582213885
5231 5231 1 0 1.6000062820288754 3.4632278458619123 8.235592427693307
5232 5232 1 0 3.2341591379922674 0.5413461263096833 6.390297339662959
5233 5233 1 0 1.890536862673745 2.1600052388724293 4.582556241377622
5234 5234 1 0 5.6776890522901615 6.249077834267704 0.8627935401281103
5235 5235 1 0 10.931709190613141 0.9815013341884747 4.585938131296266
5236 5236 1 0 5.133974767386004 7.186331152796462 8.71867884731432
5237 5237 1 0 6.581564933373985 4.054358330979809 4.49622152570205
5238 5238 1 0 10.197861192491981 7.319764689339083 6.675669516314484
5239 5239 1 0 10.292075707591817 5.211298377762931 10.398171299425085
5240 5240 1 0 12.120035707857095 2.6021569356501435 4.956754491858474
5241 5241 1 0 5.78811291037222 2.8805863360580424 10.742539080334307
5242 5242 1 0 1.720982826645253 13.921541075192915 0.05016305910791282
5243 5243 1 0 7.0898695357110695 10.097480132286902 7.53167271300114
5244 5244 1 0 8.39235773917186 12.64757367075677 8.59572660234667
5245 5245 1 0 10.576926975369346 6.747846153670137 3.4320659432843414
5246 5246 1 0 5.526825667591458 0.7028979565165987 9.162402659265844
5247 5247 1 0 6.268223542763378 4.603074515813923 8.072004430446494
5248 5248 1 0 5.152300909701086 10.304953391433637 12.999724378353026
5249 5249 1 0 8.785946120813856 2.0732868401920372 13.73288676790054
5250 5250 1 0 5.772904430479992 5.603453551733118 12.061697460619168
5251 5251 1 0 9.433355415097637 0.9322794017344432 9.962573080591623
5252 5252 1 0 10.075915367282006 12.42848113750412 2.24945166017087
5253 5253 1 0 13.578293652180648 5.59559236851358 13.249941278387219
5254 5254 1 0 6.2884427084425845 0.661379986430688 8.554258214599718
5255 5255 1 0 5.8083676971630425 3.783284269538904 4.8189113327791215
5256 5256 1 0 0.7507926711708577 13.359146239012723 13.23036562279284
5257 5257 1 0 6.569049328315311 6.763589853741383 4.024993763972974
5258 5258 1 0 6.797128445624329 10.290280386444602 12.096291250226313
5259 5259 1 0 1.8143596309111731 11.948951884816998 13.746210288613
5260 5260 1 0 12.166409561861125 7.728764798641416 12.689149556195552
5261 5261 1 0 11.15179410898646 2.2953416431735216 13.984560861788022
5262 5262 1 0 9.468621998600819 7.719102668202144 9.504913672293899
5263 5263 1 0 0.03444041017416968 10.895942783812487 0.9774282559834392
5264 5264 1 0 1.7308275894801364 13.512177397768447 3.4782921897065617
5265 5265 1 0 3.0726256725143566 5.841145675804056 10.96137176191735
5266 5266 1 0 1.0275021702750553 2.782036383904331 3.831763843693154
5267 5267 1 0 8.681669331175524 13.640487766730091 8.187793723978324
5268 5268 1 0 2.847305198756138 1.5660769496056366 4.625959999224458
5269 5269 1 0 2.924623759746587 11.988804536370436 11.566426071740485
5270 5270 1 0 6.111495775883079 7.659952521715303 4.606504020515809
5271 5271 1 0 0.43852454068366387 0.0359866432609971 13.683165104057531
5272 5272 1 0 10.72477879821292 2.9886188731105463 0.3152915359384648
5273 5273 1 0 2.8492906410204633 5.644189948326789 2.912092829150864
5274 5274 1 0 11.96019687853344 1.544454584089801 9.989601089972036
5275 5275 1 0 8.412414465232006 7.195630513989865 7.845688850655894
5276 5276 1 0 11.349258494357251 11.692295271680788 3.5835666112816087
5277 5277 1 0 5.706711207312636 12.023312247186743 9.11144300048043
5278 5278 1 0 13.39148359524547 6.0655920775073895 2.553240827940814
5279 5279 1 0 3.928930332953499 9.734489693898377 8.5350018707042
5280 5280 1 0 3.3789071353063926 12.194909193478649 9.634107964139357
5281 5281 1 0 4.054343708826103 5.40046112079912 11.664939520172776
5282 5282 1 0 10.587422630670995 10.86354991949254 0.3589137180787652
5283 5283 1 0 10.307543512419688 8.597977177804282 9.161863535338307
5284 5284 1 0 5.931959616877458 3.3885598622238566 13.48074463786169
5285 5285 1 0 0.5045717239177745 11.253069514827562 4.112817856922087
5286 5286 1 0 13.994022223907391 11.749932293743496 9.595462002388421
5287 5287 1 0 7.923243627535453 9.599623863220309 10.193849321847157
5288 5288 1 0 9.343753151475733 4.951396471921255 0.30874976913634533
5289 5289 1 0 10.20911242410267 12.55628820785099 3.4385377191024897
5290 5290 1 0 3.9187125148167206 4.5049976235841385 9.56872296140506
5291 5291 1 0 7.663893127416576 11.14873287162507 8.871438867385383
5292 5292 1 0 5.177169558331224 3.0519936523353697 7.90258231282317
5293 5293 1 0 6.961116536853895 8.870093513720327 7.136680614787186
5294 5294 1 0 8.390442210240685 9.077405370530311 6.9236133714510375
5295 5295 1 0 14.052949402231604 7.46864916926693 2.688774649795191
5296 5296 1 0 7.891268943414459 13.939651861922652 5.7720309158772425
5297 5297 1 0 1.7558816073335364 3.6889642618072482 3.974491043408098
5298 5298 1 0 13.1719775057656 13.604486296954343 3.703846218870903
5299 5299 1 0 12.997991657733877 7.347498948319831 4.883077293457052
5300 5300 1 0 6.571489201630545 7.479713282023514 8.10414332985208
5301 5301 1 0 7.824552972598692 8.755429298070407 6.505486664504417
5302 5302 1 0 5.553178335652453 0.576938318559189 11.327978472078104
5303 5303 1 0 1.1869080371053036 3.1566672578194854 10.35476262668645
5304 5304 1 0 12.069552747167272 7.686072068408937 8.101608821892652
5305 5305 1 0 8.79730405269481 12.497379339372657 13.90564019031926
5306 5306 1 0 2.739138713282569 1.8523096026263122 1.3927254111485703
5307 5307 1 0 10.563675660219506 6.302833214363842 11.70479989405225
5308 5308 1 0 1.0325865599886996 4.017164007694694 7.31213733358839
5309 5309 1 0 8.882124920221958 1.3655078335219817 12.870562788548078
5310 5310 1 0 9.000689560677758 2.7436207655775946 10.932902089257475
5311 5311 1 0 0.39933115845015293 2.436564528917351 10.382661131597525
5312 5312 1 0 12.721415728381636 10.71277713610582 8.358348292757045
5313 5313 1 0 0.9719540660725051 6.044633464363151 11.392363648217403
5314 5314 1 0 4.068976585082936 11.335591839133102 2.483529414472035
5315 5315 1 0 12.540079937448548 8.191001405338456 9.635459948102566
5316 5316 1 0 8.54041180755578 7.413687355988589 2.318132539428504
5317 5317 1 0 13.316720378113672 3.722369412594973 1.049691218685957
5318 5318 1 0 1.285879361070612 3.7037764679371197 2.807627070205295
5319 5319 1 0 12.889549644302903 5.534620232370656 9.645325859510235
5320 5320 1 0 8.590968296289573 12.562229126914788 2.162243870379401
5321 5321 1 0 1.376213802230014 12.103643974799427 7.967800489273305
5322 5322 1 0 0.7475872825983075 3.8440156674654014 4.619400322656538
5323 5323 1 0 8.135095335261564 2.369817256630452 11.075021533267723
5324 5324 1 0 0.3521669521070715 13.979250389234888 1.5500637394424113
5325 5325 1 0 7.7406915206271645 1.8477854107216853 2.3884064845752992
5326 5326 1 0 6.268875546594441 3.2069786646818246 4.957268572496141
5327 5327 1 0 3.4067586012803894 4.938045169372738 3.4787265657266033
5328 5328 1 0 7.371593438932456 12.616892986939357 3.0851169827171407
5329 5329 1 0 3.857771759712428 1.9061144099778877 13.01237368987445
5330 5330 1 0 8.96710666107717 0.8011648611351518 2.34443298901866
5331 5331 1 0 4.151400405492733 13.700752763687442 4.145790273907285
5332 5332 1 0 5.940302786103925 12.122304870681804 0.5302359642450681
5333 5333 1 0 5.479506805824694 1.0467874745649757 7.691855413048337
5334 5334 1 0 11.084848420037444 12.613239109235852 11.45767604362954
5335 5335 1 0 1.4429998211433597 3.572981063145785 0.15297200016842663
5336 5336 1 0 6.732501084206361 7.15284978038053 3.0098258763513384
5337 5337 1 0 1.7720852973447447 4.968093870778351 9.114352044757483
5338 5338 1 0 6.840822199228105 2.963214263693611 5.78890383581958
5339 5339 1 0 2.3479299547750565 12.01114843009342 8.266120749922036
5340 5340 1 0 0.7776843667964105 10.400468885018414 9.690091071585423
5341 5341 1 0 1.6625205430058203 3.3364753965656155 4.830116887381962
5342 5342 1 0 11.753972470918029 5.863677315004544 6.336627630830983
5343 5343 1 0 4.274734347478083 8.034298541229518 3.317806435273987
5344 5344 1 0 9.527451103117585 4.778484679511078 11.692086529159857
5345 5345 1 0 13.294715202778221 11.682269450334783 4.064119757800697
5346 5346 1 0 10.248708376598085 13.720445924126887 2.3344882318238427
5347 5347 1 0 7.450968751306311 1.5984842993379478 8.504013367049273
5348 5348 1 0 4.138134721108383 6.309283830617686 2.754999688614123
5349 5349 1 0 8.84006428387103 7.190713327031277 0.7447010834559201
5350 5350 1 0 13.65833284511582 9.422071924988083 10.779393807319583
5351 5351 1 0 12.428820231061259 2.778940433732879 9.47664761051613
5352 5352 1 0 8.696809364848159 6.24965438706249 3.061544029819194
5353 5353 1 0 6.9397520478879775 7.187365533775365 2.2471451553352324
5354 5354 1 0 8.263581490120607 7.770766090610646 8.324333106615672
5355 5355 1 0 5.8627304916964516 2.77559037067746 11.865478281254736
5356 5356 1 0 2.6802360847661393 1.9352222319831165 4.431005639393449
5357 5357 1 0 6.357383201469248 4.537474669453812 6.864002471676805
5358 5358 1 0 6.176061403009862 9.662299972704439 13.417840106364235
5359 5359 1 0 8.468780826922563 10.048752494182471 4.583590285372308
5360 5360 1 0 8.509897104450914 7.839636446479419 0.32439188045887957
5361 5361 1 0 6.950033377663033 12.422272300849594 9.332299351080993
5362 5362 1 0 7.041086927145815 1.0513022458969292 2.5576041056073677
5363 5363 1 0 11.551269072157268 3.70723689668151 5.098284639956902
5364 5364 1 0 11.42937968046208 0.36098821975320083 8.633316978906192
5365 5365 1 0 2.6263302204238044 3.5704278582833493 12.419934135679393
5366 5366 1 0 11.000112522042272 1.2747722827336145 9.832113698139578
5367 5367 1 0 9.822538985824577 2.847170713769705 1.7551086901279382
5368 5368 1 0 13.748714535092162 13.134567389165195 10.623434890106688
5369 5369 1 0 0.32650974968831314 7.924267055633252 13.842940318253914
5370 5370 1 0 10.770701943020432 8.48958114158795 0.9013776555155032
5371 5371 1 0 0.9262583003404332 7.020681595627183 5.807867899969461
5372 5372 1 0 8.752772817833478 9.090096281450649 0.7043565438001123
5373 5373 1 0 4.065263982796014 5.207306349576202 4.486904196117229
5374 5374 1 0 10.278887353330997 4.288606663976667 0.5312349185624542
5375 5375 1 0 7.694540116780318 11.948386801398666 3.2140726314133206
5376 5376 1 0 11.642872852725032 12.913108589835744 2.109420547237037
5377 5377 1 0 5.59694003936087 6.117425754685605 8.784288262944996
5378 5378 1 0 2.6112122057643177 6.645964804442889 7.653866958814261
5379 5379 1 0 13.209516336574117 5.517578567540218 4.577838213349585
5380 5380 1 0 1.8255930260201683 0.9923271599155613 4.381424377224886
5381 5381 1 0 9.886676967651045 7.131017992931091 2.3962028123197396
5382 5382 1 0 0.2268776992187846 4.0027929370099695 8.337047297728148
5383 5383 1 0 12.021462376766644 2.2933413187348966 8.855880054101565
5384 5384 1 0 13.16823189410906 13.8574823945217 4.616058644623379
5385 5385 1 0 12.538966941025402 14.047804282101723 4.237463665990223
5386 5386 1 0 3.841158647592371 7.627140769491696 8.006497680248389
5387 5387 1 0 11.737133161984698 9.293068295799175 2.5992686450464806
5388 5388 1 0 8.50965875078667 13.393714322819857 8.745634566456198
5389 5389 1 0 5.889837811755973 11.222817882598052 2.380685791013906
5390 5390 1 0 1.185994731333045 5.7130432670622335 6.022865271181521
5391 5391 1 0 9.69418157749862 7.194705043516914 12.305145407378335
5392 5392 1 0 1.4195387325855293 8.182194669435026 6.989171716486517
5393 5393 1 0 8.343957120052297 10.806031720992364 11.85791310428902
5394 5394 1 0 9.224415257832973 5.577024729644723 11.613904468180179
5395 5395 1 0 6.236301690758044 0.4709238991415053 11.866941827835353
5396 5396 1 0 13.053020406481652 1.0970028618445202 7.709372653671052
5397 5397 1 0 12.312164527315018 3.4394042307866846 5.312946044238936
5398 5398 1 0 0.29980295110005517 10.494707577733529 0.2649665586866303
5399 5399 1 0 3.002756251886179 4.559240900744466 1.2467148262100116
5400 5400 1 0 3.2153553089084013 8.11789621553517 10.950887397799761
5401 5401 1 0 2.817413313888134 6.521261358164505 6.906170438082292
5402 5402 1 0 10.161832938776497 12.844312112264763 7.971387506469534
5403 5403 1 0 10.689519863397987 8.5177160625237 7.549433855124932
5404 5404 1 0 6.785653137921302 8.62613789551118 6.207807183785179
5405 5405 1 0 3.8093608010223186 13.213603339124754 10.52833543694004
5406 5406 1 0 13.886540208006343 8.98265321504622 4.026242744741863
5407 5407 1 0 7.650343153300795 9.874252527163696 11.201601853739138
5408 5408 1 0 7.1685994730978395 5.450035809247793 0.48601734268193486
5409 5409 1 0 7.706844730638838 0.741750697385633 6.133095522659037
5410 5410 1 0 3.082869568979917 4.152485401173208 2.3587204884269766
5411 5411 1 0 9.610203296293331 3.85166597453167 7.269210204999537
5412 5412 1 0 8.807988379761404 12.679249288977521 9.332314078127354
5413 5413 1 0 5.999076530968064 2.7759612522548895 10.351962909838699
5414 5414 1 0 4.086822876628143 13.312087592508869 5.857971654844997
5415 5415 1 0 7.156858745017045 6.001542531228434 13.702079598042832
5416 5416 1 0 5.122806572947658 8.579678310058172 6.574045248517918
5417 5417 1 0 2.2254463081090385 1.5549073015434576 12.974960816440225
5418 5418 1 0 11.363590388648708 13.039769416188058 14.013573082205703
5419 5419 1 0 12.890323764925265 12.353667209709792 13.327295081165362
5420 5420 1 0 3.641864434126519 4.626882241016223 3.033875098387081
5421 5421 1 0 6.123910996515894 9.776102907507978 6.338485091463804
5422 5422 1 0 3.485378667667927 8.806110408074902 4.9692872786388165
5423 5423 1 0 0.49573228764617866 7.405943651780784 2.434163553658495
5424 5424 1 0 9.19814707804359 9.204257093996546 0.7605693984993003
5425 5425 1 0 11.417173274309254 13.063522730680633 3.5223946471629337
5426 5426 1 0 2.5647831964985666 7.911861008703508 12.94265516591895
5427 5427 1 0 13.899569498658748 4.540016549333353 6.715536110229931
5428 5428 1 0 2.944123334812237 1.3166570233088182 5.682816419452821
5429 5429 1 0 13.36701349733399 1.600162880483965 12.882606391381227
5430 5430 1 0 5.131954388428746 2.4201578008787545 2.3080377632277176
5431 5431 1 0 5.653031152134299 11.86798879626019 1.242877065472023
5432 5432 1 0 13.93575279837206 4.967491382522044 13.58544116990985
5433 5433 1 0 9.737474069240479 3.1274327080299678 11.306715712661356
5434 5434 1 0 2.0370178834005 1.9696248450626868 13.719702697966353
5435 5435 1 0 4.1439027087597875 11.665176792435421 4.092583492313846
5436 5436 1 0 10.897192968118308 10.199655069331953 1.9843671938686325
5437 5437 1 0 1.4144662513664052 4.653847000448605 11.631441352165803
5438 5438 1 0 3.4622909014411016 2.4996765794543867 10.326753772375955
5439 5439 1 0 6.168652834725006 5.880513163068353 12.754720752754771
5440 5440 1 0 12.600193222099325 12.357450304515863 3.4129757363766666
5441 5441 1 0 4.794208223112969 8.61531292141674 9.841072747578165
5442 5442 1 0 8.27726284489864 8.593124133489349 4.457133726511099
5443 5443 1 0 2.911440214883964 12.41944291035766 1.6264780579981597
5444 5444 1 0 6.257995548435885 5.280813437652111 7.966802577868406
5445 5445 1 0 9.402527479552441 7.602096732778355 0.722999647050569
5446 5446 1 0 3.2566242240675627 13.941112259345813 12.09138507997015
5447 5447 1 0 7.230895112031831 4.101823614861538 2.032973262840425
5448 5448 1 0 5.748012938152926 7.110327188804055 0.9816444239978306
5449 5449 1 0 2.409025379951904 12.308006270227866 4.609966621484355
5450 5450 1 0 12.514499973881701 6.657521395125923 11.85958199358389
5451 5451 1 0 0.41789156715406084 9.484702129804056 13.39874793096444
5452 5452 1 0 2.809581697520609 8.943686934161267 1.9342365083652355
5453 5453 1 0 9.137818575620766 1.578499174464001 5.126727817759704
5454 5454 1 0 3.20660249750391 3.175359449298547 13.554120165955503
5455 5455 1 0 8.250971384182016 12.039658298157716 6.501759905377207
5456 5456 1 0 7.520669179276625 6.799130192736689 4.086649604889228
5457 5457 1 0 0.796975080176784 10.249690460546072 4.804254713147975
5458 5458 1 0 5.9704126681888585 13.645836861542472 3.0709733850815097
5459 5459 1 0 8.684095899597198 13.515298606886155 2.6794264915428267
5460 5460 1 0 13.569719061183761 6.977546476447829 4.636644086011415
5461 5461 1 0 13.971028837580869 7.417948501860834 12.89283729105574
5462 5462 1 0 7.839572831302922 9.894790537235362 2.930608186101981
5463 5463 1 0 6.147469819012408 6.826387163836794 11.673129539309327
5464 5464 1 0 5.171253162063087 9.891906691662484 0.5857315389238621
5465 5465 1 0 9.550608351952471 3.293011101395375 11.731849814294314
5466 5466 1 0 1.5981337686432602 11.305968783812084 10.083784843479716
5467 5467 1 0 12.863052881209411 7.944443149559599 13.823458739204277
5468 5468 1 0 7.335066949797058 2.1327676239915876 9.443890501007308
5469 5469 1 0 12.729643566724132 4.685201375997548 1.712341471421672
5470 5470 1 0 9.50921112815168 8.171777413076642 4.056873475372168
5471 5471 1 0 2.9672548292240237 12.537867632377738 1.5518314230004593
5472 5472 1 0 7.517191316545037 0.7770132529357707 4.7882948534516485
5473 5473 1 0 7.562650296889637 1.9976357393854205 0.8316725679584286
5474 5474 1 0 2.533061659799496 12.455955260910565 5.578553960008689
5475 5475 1 0 7.667897355839215 4.544550798151586 1.307518837725036
5476 5476 1 0 10.672340463483353 8.129872683309467 6.425839406726203
5477 5477 1 0 2.6559174361978033 0.7330266695314075 5.722165340732553
5478 5478 1 0 12.005133751396105 7.612109421122718 3.2490933494414107
5479 5479 1 0 12.913331551554927 4.86876540077278 1.4449098582773012
5480 5480 1 0 6.37438431932567 1.6699868166861451 5.675063072093721
5481 5481 1 0 9.028285658100701 9.4770614757861 0.12340941310290969
5482 5482 1 0 13.648582652250784 14.016608259785084 6.181117908067917
5483 5483 1 0 2.619478950735024 2.3220339343015333 9.962225622308113
5484 5484 1 0 1.043265492310074 7.909675700936312 13.483309513324667
5485 5485 1 0 5.866636110690465 8.409731921377812 3.330946452116469
5486 5486 1 0 2.4463367143237433 4.869071245303199 7.576942949830332
5487 5487 1 0 13.651901815000441 12.113462603711467 8.761702879053892
5488 5488 1 0 7.940073832182468 5.436841958927751 5.290726699557469
5489 5489 1 0 2.7328869125859865 5.757496911273086 11.393884113740647
5490 5490 1 0 10.716312851296975 2.020468702057739 3.264998081935735
5491 5491 1 0 3.028852758329131 6.12991568098639 0.1905507765193431
5492 5492 1 0 7.869358790184688 11.043756752842931 11.985999495912852
5493 5493 1 0 3.4760297115317194 1.249406490526367 6.10656124143925
5494 5494 1 0 1.8161544180043523 12.830859871145016 1.9916469001556398
5495 5495 1 0 3.3433032520840387 7.670963100597812 2.087166013529794
5496 5496 1 0 4.770809000078016 4.462826718789291 1.5247001133673632
5497 5497 1 0 9.018802188110769 9.78244569805388 13.283328355648246
5498 5498 1 0 8.66547048329476 7.7833636289137 7.113618537516342
5499 5499 1 0 4.643147401218544 0.22954045157621059 10.028626207326447
5500 5500 1 0 4.012211013784989 5.890211991503277 3.9108857925707046
5501 5501 1 0 11.675316398971455 2.7810701426443183 4.349501371858769
5502 5502 1 0 2.3510583445047115 4.322323261764951 3.162102750964648
5503 5503 1 0 2.574956812525321 7.078499563837098 12.649938101668068
5504 5504 1 0 2.448812395476838 11.63081614227051 0.4657694052055525
5505 5505 1 0 7.255714186128299 12.236009375617652 10.470727000305413
5506 5506 1 0 0.5810091928321228 3.5114078798248443 1.6709257752889901
5507 5507 1 0 2.0517915678903997 12.40150082744732 9.557139781261432
5508 5508 1 0 0.3907460967667078 3.150885312128737 4.1224286081647525
5509 5509 1 0 3.2585627546059337 4.644670196830182 11.599305676637206
5510 5510 1 0 9.927732221433619 6.325313399760896 4.18457855914675
5511 5511 1 0 5.543095793453861 11.285575876538623 7.366740848104229
5512 5512 1 0 11.734333674729172 7.098450577831523 10.328901289933707
5513 5513 1 0 1.0860109360867887 12.118094619345937 10.161119161186228
5514 5514 1 0 5.796483377336208 13.094243870685743 13.188075926588505
5515 5515 1 0 3.75246511257236 13.872974751739672 7.263803949725643
5516 5516 1 0 7.6221950551257125 13.142409147797348 2.9647219090973773
5517 5517 1 0 6.364585998442971 12.473667421780194 0.5300973835588294
5518 5518 1 0 11.594880091443908 2.138439564952198 5.899226835659283
5519 5519 1 0 8.495906284135213 8.4971027092364 12.441354789327141
5520 5520 1 0 10.781886678640376 1.4734954904971966 3.120083693443723
5521 5521 1 0 1.7971560020177486 5.589381298226559 6.508314533878071
5522 5522 1 0 6.221025010584866 9.355714951087554 12.698599502435766
5523 5523 1 0 8.322452028867302 13.085105281552414 1.3652067096726959
5524 5524 1 0 11.751564036888247 3.301935034874764 10.594349808214206
5525 5525 1 0 5.793792639104062 0.7752096536229035 7.420332207407965
5526 5526 1 0 0.21111301518185296 13.290286002131149 4.168350127225157
5527 5527 1 0 0.11277743837392247 6.297380627072155 3.045209929425043
5528 5528 1 0 11.176338169785689 12.180308159356505 2.6683904088198194
5529 5529 1 0 13.952672027886978 10.464777452608004 6.155744602746885
5530 5530 1 0 5.50476481534145 7.049804200089159 8.740544787127044
5531 5531 1 0 8.603839784661092 8.87167848948399 9.971077029345507
5532 5532 1 0 3.9809496101163004 7.327574379333579 6.543986199951021
5533 5533 1 0 8.910019230392487 2.829779230314423 14.028223774831602
5534 5534 1 0 5.073224746764957 2.1387332904213694 13.042706518347739
5535 5535 1 0 2.8782387307448394 8.503571974305407 11.101228868976692
5536 5536 1 0 4.491849663118997 9.279988485751819 0.40889319173882316
5537 5537 1 0 3.10603372184455 10.114882445910299 3.876800283787469
5538 5538 1 0 10.528635464788996 10.389356464711193 7.756352463062202
5539 5539 1 0 9.006686016751239 2.2075779174611134 8.016581302996602
5540 5540 1 0 6.541183249467209 1.5523215611613594 8.449698352253348
5541 5541 1 0 9.386600257299529 6.587347475029555 7.083704893284696
5542 5542 1 0 9.518091217826 7.777929228014153 13.212941301505282
5543 5543 1 0 7.611899314433759 8.838851378951377 8.176848606941203
5544 5544 1 0 7.2792870669075365 4.935841557377865 5.543236734636641
5545 5545 1 0 11.344953556425125 10.036781541654484 13.832654081752711
5546 5546 1 0 7.484284011349624 4.870399848568113 6.930714325012759
5547 5547 1 0 12.64297933814333 7.641547339940656 11.533123469764938
5548 5548 1 0 1.7950140851608878 9.062340218114478 7.917884475813594
5549 5549 1 0 11.914550204779607 12.52411468939567 7.317043860147563
5550 5550 1 0 5.06611276031596 8.537530265274539 9.005224879320908
5551 5551 1 0 13.203272900957604 3.317442479479688 1.069576811183172
5552 5552 1 0 7.556137562134254 0.9033197947663606 1.8567069155467095
5553 5553 1 0 12.562484345154449 3.6034871590086253 11.205306522510464
5554 5554 1 0 12.902584609926933 0.08979657321930896 13.791808357824618
5555 5555 1 0 8.331379268272816 9.908520188430032 3.7167265924177824
5556 5556 1 0 11.772217372634413 2.794827591263147 5.9944174810627615
5557 5557 1 0 8.874726050944332 12.36684458900198 13.380101911840583
5558 5558 1 0 9.159163607287383 5.633440755166671 0.4666488550904238
5559 5559 1 0 9.142846979864293 12.355123023673793 5.635022230714907
5560 5560 1 0 9.750254439721795 12.011437171135022 5.682454488996892
5561 5561 1 0 12.576615087191707 9.184886120705231 6.621506180688505
5562 5562 1 0 0.8870499635541176 2.0117391948870758 2.522901020163919
5563 5563 1 0 10.44000770608272 10.175125379066685 13.6897266872439
5564 5564 1 0 4.113129097859465 11.315269031739732 0.3390352250687586
5565 5565 1 0 9.274273694739223 3.982594627404622 10.856760752448675
5566 5566 1 0 1.7964909408994372 12.492961256067346 6.612532329801509
5567 5567 1 0 11.797164667786518 14.009953481283437 7.784772504486108
5568 5568 1 0 10.554259436253297 7.229281993795773 8.39153201128924
5569 5569 1 0 13.268854208654139 5.58418094345628 10.653050938811093
5570 5570 1 0 2.641278359945456 6.792329990591634 5.619505118984567
5571 5571 1 0 7.987790076218062 3.4616033847369025 4.349685676274837
5572 5572 1 0 1.865668599451389 0.654771727303483 10.296662990957955
5573 5573 1 0 6.805112832475057 1.0093524093535644 10.550664295787747
5574 5574 1 0 9.99114210396738 9.249335254553882 5.775606392753973
5575 5575 1 0 13.49186727383773 5.0795709886224305 1.0816239459435768
5576 5576 1 0 12.851683206493343 8.104170326590742 2.082974309481361
5577 5577 1 0 5.450268784417724 9.086423276933672 4.709257022308035
5578 5578 1 0 0.8611312529920103 7.087023401069555 7.190668540504752
5579 5579 1 0 2.1655363993882637 2.5247283898786854 8.900931963228189
5580 5580 1 0 3.9599737418204395 9.277063237314342 1.3157818081540507
5581 5581 1 0 9.415175503911069 7.511958481507154 3.8363652702904742
5582 5582 1 0 13.589795683558846 1.9823259751918019 10.493605486749656
5583 5583 1 0 9.138501756213019 4.5918847418692215 7.001153305043789
5584 5584 1 0 7.00111795846509 6.163007426837665 13.931142786700066
5585 5585 1 0 3.5204042835602443 10.942635366189982 13.767576328221644
5586 5586 1 0 5.580681982366536 5.736265606078827 4.080911564400146
5587 5587 1 0 5.802575139856085 0.29983889122060975 12.364187188047387
5588 5588 1 0 7.719998099913071 1.130619072232887 11.582587030790352
5589 5589 1 0 3.697331484300892 10.229043000469884 7.790071861123037
5590 5590 1 0 3.461070829697468 10.054398015790158 2.1451964246639315
5591 5591 1 0 1.156986002276954 13.938529514237416 4.169436643720457
5592 5592 1 0 13.329486368057243 11.22460725365462 8.7532377506466
5593 5593 1 0 0.06116432901103136 9.765474188738542 10.91493644966235
5594 5594 1 0 11.198017783173494 6.487354266061284 10.861761201039938
5595 5595 1 0 2.836561847677172 7.860358032455433 12.503480513515182
5596 5596 1 0 13.771238698932791 10.951271808976871 9.747917538635749
5597 5597 1 0 4.421055438092979 4.787821005659383 2.384012356030049
5598 5598 1 0 9.968023638554724 13.548049601944454 4.755350037037248
5599 5599 1 0 1.0707203274162718 8.243822412784212 4.943129740662368
5600 5600 1 0 6.155631853642505 6.491181010073877 0.650564644709818
5601 5601 1 0 8.099369816289348 12.193684800467684 6.845905920865221
5602 5602 1 0 8.373105279170579 13.559575260320228 11.421182014650286
5603 5603 1 0 7.428143462367747 11.260763601397722 4.658569610849398
5604 5604 1 0 13.57057084832433 2.6235033408290063 4.835183029410598
5605 5605 1 0 9.002164390737983 8.142741551241324 2.105193707984274
5606 5606 1 0 3.1009908383350493 0.2635483311312002 11.49531320875272
5607 5607 1 0 11.964591681407263 8.750537219010779 3.9634152757623444
5608 5608 1 0 9.396309519967959 8.797033244414838 12.761731861645865
5609 5609 1 0 2.716392951124422 4.433989436513281 8.496657589090338
5610 5610 1 0 6.331481665873112 7.176245783331372 6.784980036792664
5611 5611 1 0 3.2279876012246915 10.85749462607108 9.070003368221633
5612 5612 1 0 11.395285811893212 5.17541663041816 9.552968453035746
5613 5613 1 0 6.589845904025435 12.672989677917283 11.280917548960879
5614 5614 1 0 11.942782514003833 4.92484420773414 8.331732089324856
5615 5615 1 0 2.320784701872277 3.887420015680111 2.150316534498828
5616 5616 1 0 2.714912743230885 10.937660010178263 2.5612961665533174
5617 5617 1 0 13.849520881891264 9.758253071218974 0.7515318872084737
5618 5618 1 0 9.884284168034746 12.917141903853404 13.538917760599814
5619 5619 1 0 11.163830059590568 6.262098589687387 9.739516682815466
5620 5620 1 0 0.1013679924066273 5.933574541972162 11.346021064465313
5621 5621 1 0 12.15666892733294 12.1183975768379 11.853884899679073
5622 5622 1 0 3.3427558566565825 4.3165165550079925 9.665953756074682
5623 5623 1 0 8.328230635985303 4.51689712145528 0.8789589887230903
5624 5624 1 0 3.434708196925683 3.867702126225413 2.213839970910259
5625 5625 1 0 2.4050439333605964 10.972758898195979 0.7596428552792168
5626 5626 1 0 14.016158987755423 2.3986619064682935 1.8137997141062443
5627 5627 1 0 8.769687158431514 10.734006605975654 5.206648815330574
5628 5628 1 0 2.098634084448121 10.88499181411916 3.52169038163684
5629 5629 1 0 4.624577977806873 13.927379287914201 12.934696185995799
5630 5630 1 0 8.22387143573491 3.753413007354893 12.944607658021857
5631 5631 1 0 0.22367856264026872 11.163113976908297 6.943316559017849
5632 5632 1 0 5.531593525717214 7.405219568624204 0.2968161870731529
5633 5633 1 0 3.7036749122339185 2.2916630674016374 3.4329491709517095
5634 5634 1 0 11.185601792450964 6.690798228580884 13.023453892842218
5635 5635 1 0 12.492660422266733 2.3334354275730083 0.880012389125952
5636 5636 1 0 10.501913387345095 3.000762758172748 6.869341189195073
5637 5637 1 0 2.573610911886619 10.359880637100883 5.005563957466983
5638 5638 1 0 0.7619811202279717 1.9931584798778215 10.141554014884628
5639 5639 1 0 9.48245956593349 4.175971802293077 13.935659789940994
5640 5640 1 0 6.109999153586502 7.35298393904466 7.66895184502531
5641 5641 1 0 5.714741953969671 5.750924299971344 6.811208405755009
5642 5642 1 0 0.299062136097948 1.9955168091335604 2.9597353639729866
5643 5643 1 0 14.003476087235248 7.390101609679189 9.271493204324406
5644 5644 1 0 13.374323931404701 9.18147580728599 4.631915695688971
5645 5645 1 0 8.10024894484025 1.3590775583631278 7.2604945165827965
5646 5646 1 0 3.2543866343834775 4.100473115496234 11.55569178761027
5647 5647 1 0 2.9943583687951687 6.631368873575041 11.97660078310901
5648 5648 1 0 2.421624099926641 9.925391288697705 11.342054309151868
5649 5649 1 0 13.839981705946911 10.600947564382738 10.1080097224093
5650 5650 1 0 2.3802664894039474 0.10032180178133966 0.02992890421413806
5651 5651 1 0 2.226403469404278 7.968195363097786 2.9605682232598554
5652 5652 1 0 0.44104989128111693 9.495461130458159 9.920121123815496
5653 5653 1 0 2.9737461126005846 10.435176605229561 8.370620263533858
5654 5654 1 0 12.942258245264126 13.906237595358686 7.053487523008484
5655 5655 1 0 11.334883071153516 8.980348663720005 4.708109475658765
5656 5656 1 0 7.890521499078558 2.2600780290231848 1.05635958848012
5657 5657 1 0 9.437857974810257 14.017370739577462 5.232670256337665
5658 5658 1 0 0.8877945125509837 11.481880684937414 2.2267792617594067
5659 5659 1 0 8.591011723912324 2.477307188806109 4.823320492494355
5660 5660 1 0 1.51363802497975 12.606271619727343 11.962676877532418
5661 5661 1 0 11.125127260735505 2.382507128465898 3.3101437551873887
5662 5662 1 0 0.24920615260492426 9.013142555034634 8.007968831675674
5663 5663 1 0 13.09820925722195 2.154330418459666 11.340793972785256
5664 5664 1 0 2.2715844052158123 2.6833238649514053 8.7629152097983
5665 5665 1 0 1.4130695417721244 3.298165418114584 11.889926228784068
5666 5666 1 0 12.654403797462582 4.335748889987055 5.1200143441700305
5667 5667 1 0 5.376611826795924 4.015136849996933 7.108451860105994
5668 5668 1 0 3.218564671766823 10.571976395279476 5.343824038940725
5669 5669 1 0 0.21773041495806608 1.5409183544365344 4.741033831308833
5670 5670 1 0 9.225998747292447 4.846307595180827 11.222036879265348
5671 5671 1 0 0.2733096689998675 1.2015315181104258 1.7472844855492269
5672 5672 1 0 3.7716706962194975 2.2720514271525207 10.826454428842178
5673 5673 1 0 12.039159633002992 10.568024892529138 13.067778524374674
5674 5674 1 0 13.765643925035246 0.18997437750195725 11.533837640578422
5675 5675 1 0 7.780462819240832 2.6303524362207944 1.7350590287219219
5676 5676 1 0 12.73172279349226 13.860737573528352 2.9653316008332014
5677 5677 1 0 1.2326624813775926 9.993746840904237 3.565283697341271
5678 5678 1 0 2.1238720183857023 3.9275326196637725 6.395622535452283
5679 5679 1 0 2.931846093097202 11.05556057026077 14.04834620529509
5680 5680 1 0 3.5097820126337553 2.1534480756142775 9.601864113336429
5681 5681 1 0 12.291723730821305 11.721755068450834 3.964267977265614
5682 5682 1 0 7.878421459840268 1.5508270065495038 3.5539975653932356
5683 5683 1 0 13.484872307920586 0.6265166111365045 6.699148997183864
5684 5684 1 0 7.699981854713581 6.77538857450759 7.033225743514854
5685 5685 1 0 2.139292356893164 12.002134493565434 6.385617427975077
5686 5686 1 0 4.612556339540048 8.18410980003239 10.36079463076051
5687 5687 1 0 13.0700554124158 13.680138921732013 3.6544314941695717
5688 5688 1 0 12.284258210212869 2.891898645749317 6.130833428597879
5689 5689 1 0 0.7022137691598102 5.702752910936161 5.58620222631742
5690 5690 1 0 9.793546375215717 6.670476960555724 12.22740321591652
5691 5691 1 0 14.059774230631186 5.041675288434186 9.09975155922356
5692 5692 1 0 5.4103251509959 4.391261530952222 12.856509522360218
5693 5693 1 0 1.6790701958125571 13.76891572924391 3.3683045212474907
5694 5694 1 0 8.119445438228773 9.919383871663282 7.863408860680532
5695 5695 1 0 7.064331939634901 11.533119097832964 5.990402553226744
5696 5696 1 0 6.4350490499839275 3.103343308812231 1.6957831210579914
5697 5697 1 0 5.831201683132934 12.216361546736767 5.99417239797481
5698 5698 1 0 6.978080196349064 9.558626178957434 10.999872206520019
5699 5699 1 0 3.1900714185809327 13.732701753619674 0.08852394793117291
5700 5700 1 0 7.081542025620763 6.009990911898844 0.6441341295930013
5701 5701 1 0 11.638663617106902 8.906724037005196 3.0931952656382617
5702 5702 1 0 12.937419410605475 2.675449825201486 12.75575955759435
5703 5703 1 0 12.364768676415574 2.660618567031352 5.582176718503288
5704 5704 1 0 9.867029233678903 12.301820277335084 6.767131070901221
5705 5705 1 0 2.8599541982226757 9.247539170387347 4.898656336533044
5706 5706 1 0 9.08366005465718 7.351193380942382 3.510398609659344
5707 5707 1 0 3.028279651721647 0.40013406146097474 4.255189063119052
5708 5708 1 0 12.580125772028753 8.412159162536238 9.065308291959102
5709 5709 1 0 8.517045864205945 10.31500502116137 2.799512599892677
5710 5710 1 0 7.8515074924287145 4.79547588202478 3.8299058286302
5711 5711 1 0 3.565519055780141 1.9897378378797046 6.652714479872247
5712 5712 1 0 8.90511368190082 6.489368256270368 11.72417929909364
5713 5713 1 0 4.773118401481561 11.18976907164507 1.3783049869620871
5714 5714 1 0 5.326010444884176 7.525921280774836 11.320084201658398
5715 5715 1 0 7.954497127308605 9.834473542784497 0.562084221968742
5716 5716 1 0 12.623356750402923 5.176686126053006 9.143141160171826
5717 5717 1 0 8.877231191477776 8.354810001669964 1.767908822550691
5718 5718 1 0 11.86032787953798 13.438343395599107 12.515117794314977
5719 5719 1 0 2.0563418781875136 12.57167139137115 10.202228024188157
5720 5720 1 0 12.54596585714326 10.352634431385743 4.236216589042685
5721 5721 1 0 6.512610798253064 2.661543612528533 4.952437447217775
5722 5722 1 0 1.9593537487108577 8.519985316979612 5.652640669497556
5723 5723 1 0 12.64045428393103 2.292941050651677 11.397018965534683
5724 5724 1 0 7.173610402315945 4.559317900971524 6.125105622083147
5725 5725 1 0 9.282283301800234 11.925113873039662 2.7546115958012423
5726 5726 1 0 8.915446484768966 3.207862580691676 13.608906080229506
5727 5727 1 0 4.161615315921823 0.9792489756999291 3.019088823659112
5728 5728 1 0 6.077631298566815 7.562691744169143 12.886223765353783
5729 5729 1 0 12.36934690333255 13.596956330927037 1.8380909780309576
5730 5730 1 0 9.340824393569697 7.802964039823882 7.961339798225985
5731 5731 1 0 2.41400873051868 10.57977037729672 1.2449824554299616
5732 5732 1 0 12.228231480289091 12.239044057813631 0.6847543117380382
5733 5733 1 0 2.861363154764794 6.230035433154467 9.27026585139156
5734 5734 1 0 7.805747019997434 0.17609819373301672 2.7614199022327526
5735 5735 1 0 1.2839703270873053 5.172016650939328 1.5881075537674312
5736 5736 1 0 13.742256841392681 10.003479681744052 9.723964060965857
5737 5737 1 0 10.004975859280204 13.852201674623283 7.597317610291372
5738 5738 1 0 8.290488628499421 8.155124989238267 9.336060732513529
5739 5739 1 0 0.33873630586769954 8.761660129188925 1.3315053569915412
5740 5740 1 0 7.732920899348921 12.061526052013416 10.344796866102596
5741 5741 1 0 0.8798570709333629 11.77360756758107 12.29368724890417
5742 5742 1 0 2.554203766712058 2.2204921915897295 4.316438894572643
5743 5743 1 0 0.9508841530130703 1.245054599370544 8.255713584642747
5744 5744 1 0 6.15786350646233 6.015147856510435 2.415959683462415
5745 5745 1 0 6.810514679587301 0.4798264868448893 2.2965870868810976
5746 5746 1 0 5.534891469392633 11.986656773935707 10.00234514848089
5747 5747 1 0 8.602995171469619 5.013825455882507 5.555617909384048
5748 5748 1 0 11.60187588696151 1.9174264963691277 3.581208751397292
5749 5749 1 0 4.958185556038529 3.648590179794566 6.946890006595929
5750 5750 1 0 6.583361823010748 10.871217344197818 12.243611745685067
5751 5751 1 0 7.417296368929813 3.5306255537942213 1.7477482980500567
5752 5752 1 0 8.169059993012937 0.145722060055647 6.125124917833135
5753 5753 1 0 9.328461503297103 6.302189684207342 8.446830619959128
5754 5754 1 0 6.3972684000338305 6.268716043309046 7.2401287330511135
5755 5755 1 0 6.702617083830931 13.659294538307039 0.877411578654786
5756 5756 1 0 13.61926654792817 1.317929039415927 10.696116935503968
5757 5757 1 0 4.99215445625856 3.3050548309740457 2.8009211839685992
5758 5758 1 0 13.669969807911446 1.9187893086012964 0.6037592524738097
5759 5759 1 0 13.738731077688996 5.219597967341306 6.814923058216015
5760 5760 1 0 9.95391821010233 8.364899120775746 8.978893100294023
5761 5761 1 0 13.45643322677419 8.586417886940266 8.430970349327456
5762 5762 1 0 2.432436346071724 8.564045018064288 2.7921454091410087
5763 5763 1 0 11.928871937054035 2.1181253922674337 5.746470532247962
5764 5764 1 0 12.619421689656383 1.5878857515125593 2.046711880988655
5765 5765 1 0 10.600093979514105 13.117922299050171 7.8925291567033256
5766 5766 1 0 0.1805330233555515 12.340825709479208 9.671468749502498
5767 5767 1 0 1.0383652667185146 10.44686793183897 9.406298991609301
5768 5768 1 0 8.129296680099127 7.649097347890259 13.051998502203583
5769 5769 1 0 10.93834238345734 10.148914829996292 8.11390443567868
5770 5770 1 0 10.86440060003211 8.484957926496069 1.0179818845893298
5771 5771 1 0 7.809956552891316 4.846718361574436 11.647458360214676
5772 5772 1 0 13.162372949453344 1.1218298730129015 13.421441265931088
5773 5773 1 0 10.181270382810753 2.0221338365345587 1.155110210139407
5774 5774 1 0 2.3990954028932214 4.169307444631705 6.586204972259852
5775 5775 1 0 6.344645585515783 1.4360092275870497 0.65589821079273
5776 5776 1 0 1.7616435840772207 4.622203482685954 9.6394907813984
5777 5777 1 0 5.590918369181 6.889378194373625 6.0932035092258285
5778 5778 1 0 4.573980432235731 7.094302235943894 10.837710892839329
5779 5779 1 0 5.942259518107675 3.406324206818418 6.659385319088118
5780 5780 1 0 11.570790269273656 4.453580389800756 0.7092922652752554
5781 5781 1 0 11.184710175358253 8.374154371834976 4.283624187515024
5782 5782 1 0 9.797000424396673 8.832640841323423 3.4318778197767084
5783 5783 1 0 2.3248838340566165 12.328729393013994 9.440612861488137
5784 5784 1 0 4.431609003975645 12.646711326385391 9.600215169536112
5785 5785 1 0 7.140758655956902 4.218896582977741 8.682330658319858
5786 5786 1 0 13.006567955856715 4.468505661211506 11.461249491418915
5787 5787 1 0 13.6377901396442 0.7630904392770792 4.642298604542477
5788 5788 1 0 8.623589218095754 2.5863199562827486 0.7226589611394318
5789 5789 1 0 12.252061764323544 12.52816179496757 13.163197400700113
5790 5790 1 0 11.570150793197762 9.980664470852822 7.153257700033113
5791 5791 1 0 2.0426991048376357 4.3546542057276385 4.062054145314918
5792 5792 1 0 0.7572037088048441 9.812044561150783 8.687653587758705
5793 5793 1 0 8.921328598075048 0.7081059957552861 12.952657228460216
5794 5794 1 0 2.9808632253051686 9.899138086049975 0.376359227208886
5795 5795 1 0 6.594534775820227 7.8720407480097885 8.038716968787988
5796 5796 1 0 5.2499728009980355 10.513910977078496 7.580371221658632
5797 5797 1 0 2.0356978123479346 0.17771381951969578 12.61331650512766
5798 5798 1 0 6.833899374923845 9.521033334467308 6.4896438841832556
5799 5799 1 0 0.0799256675522834 13.66544157234045 13.637299476593094
5800 5800 1 0 6.936900059713537 5.751809167380784 9.344896064350847
5801 5801 1 0 3.089327840084895 9.256571477133722 7.439974056123778
5802 5802 1 0 9.75467738388294 3.5971284664270633 7.864280585621838
5803 5803 1 0 1.582841704006336 9.345303687535207 6.438534781950223
5804 5804 1 0 2.4519630608019343 5.516394596033245 10.577664189710884
5805 5805 1 0 5.016392760715865 11.504369695144106 13.42887843076158
5806 5806 1 0 11.954837841759874 10.410729509974738 7.855246252808515
5807 5807 1 0 9.491875119291912 12.251312892140362 7.222532411404053
5808 5808 1 0 2.7778311511176965 6.2024975115490495 2.29696836084203
5809 5809 1 0 10.606576699823856 9.315265639840188 8.2843593056116
5810 5810 1 0 3.3217009357546585 2.1860539000759966 2.556505600868539
5811 5811 1 0 10.205526158027462 13.708086290387254 9.834396301502181
5812 5812 1 0 9.319217590620534 4.441859118040675 6.6324403493840585
5813 5813 1 0 4.7168814832649435 2.055745259784398 4.231960572533572
5814 5814 1 0 10.729044606959883 4.5461416665858865 11.200191895889594
5815 5815 1 0 7.697563329072752 9.14776687782866 11.187026649722595
5816 5816 1 0 6.9129900746442035 0.2687916173605021 5.300085303326092
5817 5817 1 0 3.996823981268947 5.8599305539060635 6.786483720226684
5818 5818 1 0 9.582067191108106 12.928082782257784 5.59620963072395
5819 5819 1 0 13.36735319113972 4.694806776144814 10.066699783062825
5820 5820 1 0 5.100681160839207 2.8550475899399332 6.903807395313308
5821 5821 1 0 3.0128675426018376 4.604917204997307 13.167397510089616
5822 5822 1 0 4.094634986903574 13.408029749728678 10.200362264588916
5823 5823 1 0 10.623344474422987 4.270524161526346 1.5120399514399532
5824 5824 1 0 11.172201901446293 4.728871814071768 4.565718139529344
5825 5825 1 0 2.842493459504981 11.061670296727277 12.740803303260149
5826 5826 1 0 4.248312216464134 11.542785955724074 6.525407680849217
5827 5827 1 0 3.1797142981776205 8.896222141520049 3.0120057758307097
5828 5828 1 0 2.7925821286510577 4.9976802665564755 4.292745786572188
5829 5829 1 0 10.125920775680775 1.1427187949359092 2.146025866951462
5830 5830 1 0 11.667009064477854 3.1207987417868845 9.65244597023313
5831 5831 1 0 13.358757601399091 9.62578721133188 5.906292954362089
5832 5832 1 0 0.5456963587681465 8.75041921337282 3.1274102190161677
5833 5833 1 0 4.093181953329095 11.052200521483757 8.040278347905593
5834 5834 1 0 1.8738601768640746 2.140448105147044 5.868386775942108
5835 5835 1 0 12.8231611899194 2.3984417500893453 10.263288507254476
5836 5836 1 0 12.53889744984979 5.6602303439577675 8.687181393957019
5837 5837 1 0 8.9029597286028 5.782473218599552 6.5569767899149545
5838 5838 1 0 0.5572241399885134 2.818039067806458 5.30990051165002
5839 5839 1 0 8.534727307872155 8.135801392409858 5.878168332037239
5840 5840 1 0 13.492122387521158 0.21539215706640408 3.3472475698344484
5841 5841 1 0 10.149548878285517 11.746757442733067 5.675046490759823
5842 5842 1 0 13.446801597265555 5.649871348083102 10.706397201613019
5843 5843 1 0 6.722203995919608 3.8881408810833866 8.789673732394734
5844 5844 1 0 3.048522799754543 7.9293653592504185 7.567990692545056
5845 5845 1 0 3.1263256037536933 0.773971568512816 6.453934274832476
5846 5846 1 0 7.0581639857154945 2.828958252312227 3.368798137983892
5847 5847 1 0 0.37773545543221054 8.359069074766953 5.783632927187106
5848 5848 1 0 13.31262456392132 12.758786844248888 9.846834156428883
5849 5849 1 0 2.753558994727339 4.571710423607223 11.521214812991854
5850 5850 1 0 5.687187051133453 11.40949559992976 1.3000332743860143
5851 5851 1 0 0.4497721245425371 0.6391895524799023 8.229635858575575
5852 5852 1 0 5.249632880623228 2.1018991391281987 5.1912683124252865
5853 5853 1 0 13.375871660348567 8.961920868987363 4.482231500180205
5854 5854 1 0 13.578507013289785 10.947601078718735 2.145112942294124
5855 5855 1 0 11.275606746914962 13.70635591728978 12.750359093389575
5856 5856 1 0 6.172282757511362 1.4998522180586482 7.084150279774744
5857 5857 1 0 13.806532505370276 4.224819344528246 7.539189745911141
5858 5858 1 0 4.894191838751122 6.654519594890896 9.315297768922408
5859 5859 1 0 11.822168771741909 2.847060290761393 12.5973371378355
5860 5860 1 0 3.703756805119712 10.044557382713538 3.628494105401987
5861 5861 1 0 9.373142314415329 1.1918497734749753 13.416836434180457
5862 5862 1 0 9.1980219875962 10.843071428291003 1.0661134171313467
5863 5863 1 0 5.1272037042816985 7.877809142223169 3.3898968653846286
5864 5864 1 0 11.272298718636678 6.3432949867469794 10.994095750101348
5865 5865 1 0 5.167320344618269 6.264246988356215 7.877403153114017
5866 5866 1 0 10.054476758610992 4.044855725339301 10.812639824707242
5867 5867 1 0 8.549344821924892 13.003136121226762 4.892659969105706
5868 5868 1 0 2.4427310914791462 6.4470347280423 3.5997964330139514
5869 5869 1 0 6.561136870791919 3.087831042691125 9.542610037139935
5870 5870 1 0 10.815207777865298 12.26756049830452 13.467691588650565
5871 5871 1 0 11.136220096030607 10.529725780394731 9.639991015974903
5872 5872 1 0 11.742279090337933 4.345063570884081 9.981412684080702
5873 5873 1 0 3.4329602428110584 6.999251981188435 11.70234324905277
5874 5874 1 0 3.992257747051632 5.020473832369138 9.128550705190756
5875 5875 1 0 6.632105527996281 13.772833666543862 3.481064150323034
5876 5876 1 0 2.5449469105202787 7.278582025565666 3.9162419221911717
5877 5877 1 0 12.720925820064682 10.548799408492565 11.911418587138623
5878 5878 1 0 13.404968079181376 9.145236344260411 1.902219365877084
5879 5879 1 0 6.836881564507071 1.7313984822368302 12.158510172755655
5880 5880 1 0 0.032476237266569175 13.12966413533749 7.428240568789164
5881 5881 1 0 13.387210963866803 3.2508187458941253 10.185512333921853
5882 5882 1 0 11.586407225327463 4.882034530943482 11.249606772355708
5883 5883 1 0 0.8592296334279025 0.504541075104178 8.060730981729035
5884 5884 1 0 6.682968607846664 8.065541432508324 11.960801699970187
5885 5885 1 0 0.7600460840616172 6.617130390503748 0.18935840439843332
5886 5886 1 0 1.9441630287367484 6.8172183463009235 2.8863204458673892
5887 5887 1 0 11.493006859793287 5.704013371218595 6.15942671716173
5888 5888 1 0 9.195973498802937 12.4226328249543 11.951127654198231
5889 5889 1 0 6.210201141833394 8.399216665632371 4.643102610498072
5890 5890 1 0 3.5834826226210144 7.890692292412846 1.2209971348903654
5891 5891 1 0 11.303046193795756 6.607264593621989 3.989530447499675
5892 5892 1 0 5.948265265943874 1.4450870288606095 8.973729787648304
5893 5893 1 0 6.010789134951602 9.332261815917661 10.391971361943824
5894 5894 1 0 12.815870379255148 1.0047892191427248 11.536253415430739
5895 5895 1 0 10.652521601513783 7.85090091466853 3.909668636685426
5896 5896 1 0 10.464469165053211 9.33021967091496 6.383422204595411
5897 5897 1 0 7.2600010549564775 8.80483399948358 11.879913309835299
5898 5898 1 0 4.295568186816238 10.609703809023214 4.36717632043075
5899 5899 1 0 12.063898143096868 2.8101787000177922 9.166341165303248
5900 5900 1 0 4.6353207420452165 0.4979996657760917 2.5899263732889803
5901 5901 1 0 2.051739011960479 3.885876144941711 7.369461313265585
5902 5902 1 0 9.87029320989799 2.5197979541020894 0.05883725234918543
5903 5903 1 0 2.436943112699888 13.08720227442254 1.5768967052474856
5904 5904 1 0 10.643402352564575 13.667357422701189 9.53615641749273
5905 5905 1 0 1.0932451908092977 4.605916326221868 10.679271301811076
5906 5906 1 0 4.61089160443217 12.563813793267597 12.551660342828846
5907 5907 1 0 6.952902957055047 11.125714220450982 2.181917917327254
5908 5908 1 0 1.9028358643944867 8.605208591794414 6.2145299149846664
5909 5909 1 0 9.671703299471151 0.2353584791451043 0.4981461795056495
5910 5910 1 0 4.874463456534 8.53948898427139 2.8255581967239163
5911 5911 1 0 11.643769943516745 2.4691411070353846 8.277874729583045
5912 5912 1 0 7.097357612329352 10.107299541378707 2.7468866467181225
5913 5913 1 0 0.3513014662904641 1.655952114449423 2.8034873449155184
5914 5914 1 0 9.223187864694761 11.360929448138776 1.5066619179650924
5915 5915 1 0 3.0914315227488602 10.394034830072131 7.096221939664941
5916 5916 1 0 13.454942434375209 11.703099440790858 9.74634859369517
5917 5917 1 0 1.8646975303164985 8.872171775288066 2.0342544229516926
5918 5918 1 0 3.4709186461440096 7.401327682359742 4.597258894827817
5919 5919 1 0 6.208079666997293 3.0121689095444295 0.8376060649531903
5920 5920 1 0 0.421601311442121 9.684284701477125 3.856988732615175
5921 5921 1 0 3.732188539291681 12.156481372494444 9.503907854279865
5922 5922 1 0 0.5019630097212815 2.256221993219516 5.967762749659644
5923 5923 1 0 10.611258390572337 10.945574710664905 6.276482234113821
5924 5924 1 0 6.721121554977708 11.096504936947282 7.137719852567284
5925 5925 1 0 8.351938710314839 6.3872016131711975 1.9050018414382848
5926 5926 1 0 12.62322616780384 11.728111007649769 6.531979641364878
5927 5927 1 0 4.69070412461156 4.819144536321373 1.4538004534615463
5928 5928 1 0 9.436135666682048 0.1099057722148719 7.540396746779378
5929 5929 1 0 8.812947646393688 10.212948949245428 9.014682169662192
5930 5930 1 0 10.287054250907836 9.956367977754685 2.682826767951735
5931 5931 1 0 8.959240719654659 12.873881502054804 3.623835012792612
5932 5932 1 0 4.742893470883654 0.0017745018963000508 13.381311927383958
5933 5933 1 0 7.3387404944866175 8.259684103362126 12.40908829894736
5934 5934 1 0 1.5395368174494766 13.958559604829341 13.871985947746053
5935 5935 1 0 11.708795419564805 7.006893946056043 8.012831435947085
5936 5936 1 0 11.257693161846074 6.3102341239991055 2.3928628043015783
5937 5937 1 0 6.374767984813267 7.723181990578537 12.938854844466704
5938 5938 1 0 11.114685246586726 8.854586919832396 11.612289726262514
5939 5939 1 0 5.233493954796602 2.511978277114446 0.4409876298625801
5940 5940 1 0 4.591182323028273 0.2407761666968881 1.0851784978379595
5941 5941 1 0 6.5857017804336175 3.7596197240020985 9.210387796808128
5942 5942 1 0 12.329778275397837 9.748807661792076 2.5794154272431773
5943 5943 1 0 5.7779756211873 6.889151438892454 10.309641423248182
5944 5944 1 0 4.532832902329642 9.222486647154124 1.5337140566723333
5945 5945 1 0 13.702069155143963 9.468164425764682 3.0404040185657837
5946 5946 1 0 5.255555248688046 11.984471472360509 10.880405201933657
5947 5947 1 0 3.5297365250425488 7.704679156405806 10.575388424626134
5948 5948 1 0 7.5472324292754935 10.309932412139004 6.160907610098923
5949 5949 1 0 6.772373424500571 10.082742987593193 6.632192139973716
5950 5950 1 0 9.336704283095967 3.0721391138126672 6.693943086185269
5951 5951 1 0 12.890193930249206 10.42469350116485 10.24765114625969
5952 5952 1 0 8.390204941835659 7.160171802825504 4.91203104752148
5953 5953 1 0 11.880016041456779 3.4885398362527713 0.28307891128264046
5954 5954 1 0 2.1752975667771857 2.2908279499526394 3.6332151720749146
5955 5955 1 0 9.259427536360104 8.500047323383647 4.904708948331151
5956 5956 1 0 12.489267233818618 3.8221153490014084 6.582066445183928
5957 5957 1 0 5.553755162057252 2.1639947875535106 2.822427961905441
5958 5958 1 0 12.368955293166575 2.5156540609380564 11.203295686445944
5959 5959 1 0 7.817943753765347 2.570877132035227 8.752206795052103
5960 5960 1 0 11.164785786330784 11.016163232320746 4.974590804468116
5961 5961 1 0 2.3380943971590646 6.186770653265496 9.285009696924963
5962 5962 1 0 7.774543741247202 6.804806627288812 10.846948231399447
5963 5963 1 0 0.45283104107248806 10.554835307000735 9.57466601673204
5964 5964 1 0 10.005886470614925 8.309583537720362 4.228207077195991
5965 5965 1 0 13.807434480481934 5.048388192090507 7.178389854516157
5966 5966 1 0 13.362651073547886 3.0916846478413453 8.470938128015653
5967 5967 1 0 6.1711423373957475 13.12431105143943 10.464320788613103
5968 5968 1 0 11.196099149343105 1.3569137123273691 0.8239447284712809
5969 5969 1 0 8.831905314218677 9.548991946204096 3.780436600984318
5970 5970 1 0 9.932608404583902 12.166028890840868 11.267173003969777
5971 5971 1 0 0.8946301174818733 5.22228322535239 2.3994682572874226
5972 5972 1 0 1.599804966895011 3.4046186393409816 1.3776194973744376
5973 5973 1 0 5.131045577711174 7.135802946199381 8.934088418563043
5974 5974 1 0 9.683707975520852 0.9270732451154762 0.5697840612715339
5975 5975 1 0 1.1985116406177878 4.248966260407703 13.396915685548265
5976 5976 1 0 10.941291902108048 4.324089704547646 1.0895424832790324
5977 5977 1 0 14.03667388065576 0.21500128771866248 4.2355822151892495
5978 5978 1 0 6.541147106453795 10.54273811608513 5.16215668949783
5979 5979 1 0 10.181582270062394 4.691167064824958 11.283234178008833
5980 5980 1 0 7.292747973253374 4.735819775597628 13.279828048309055
5981 5981 1 0 1.4593523810735576 9.109003875441203 0.10028745193419733
5982 5982 1 0 13.898795843711518 4.437810768551589 6.136914934800737
5983 5983 1 0 8.710154707667387 12.293482053520314 9.227631726514181
5984 5984 1 0 9.615906760078937 2.6811820354193876 11.196175482255125
5985 5985 1 0 4.183186325454575 4.799708206788359 4.0835849284379355
5986 5986 1 0 9.239198953509204 2.5599887467227616 4.525480518319124
5987 5987 1 0 2.025414869125887 12.668309820798411 4.187969762211559
5988 5988 1 0 7.692639049207214 13.978049560575682 2.5376955722358128
5989 5989 1 0 8.012196355569953 11.43466962798053 4.27419269377507
5990 5990 1 0 5.8615893568261495 9.017782914748372 0.3121040128319708
5991 5991 1 0 3.4295268795150586 9.784661597047696 9.937943589810352
5992 5992 1 0 11.326908946789722 1.7960356967652127 5.642271530279472
5993 5993 1 0 5.894047025701451 13.120947901900344 5.405086925849471
5994 5994 1 0 9.05511015413368 4.0635381485281 2.491906984682224
5995 5995 1 0 0.6739822351440721 9.86420921114259 6.143605265727656
5996 5996 1 0 12.128095784143637 3.264341178994847 12.752752711823929
5997 5997 1 0 0.7138490695785802 0.14167388156457902 4.48798137670608
5998 5998 1 0 3.066560391969153 13.027237424221296 8.974482155542292
5999 5999 1 0 12.332827763543884 0.5013371214580141 13.094216078784102
6000 6000 1 0 0.03777588363912141 13.559066353441299 11.79378734953999
6001 6001 1 0 13.080527016623167 5.404603343606387 12.374371777004852
6002 6002 1 0 7.525557011165379 0.3441826524369335 9.71477961059563
6003 6003 1 0 3.1277755013487614 13.711775740420377 1.040999535608782
6004 6004 1 0 12.961387700420287 8.733980568756463 10.854669160540663
6005 6005 1 0 4.369064524317244 4.3450752383495415 14.03285650185407
6006 6006 1 0 13.663979755122465 8.720761329498538 8.314499410675502
6007 6007 1 0 5.057729305701694 10.812463300480063 11.62805733581954
6008 6008 1 0 7.22168821638226 4.764922659402508 6.402162977738073
6009 6009 1 0 2.478069252734448 4.000211775942357 1.5095903045229209
6010 6010 1 0 2.204441132474994 11.913015983621053 2.805884041170824
6011 6011 1 0 9.634874291456201 9.51693187961923 11.45009069930017
6012 6012 1 0 3.2344398535415353 13.226229232138737 11.75357982725499
6013 6013 1 0 13.46226396563745 6.604403421559173 7.564081069946519
6014 6014 1 0 12.92541218559508 8.435672715483124 6.2103522048000945
6015 6015 1 0 3.474383254629616 1.1933670699427572 2.368918402623488
6016 6016 1 0 0.3470670092271195 6.530953852890667 0.9317700621673005
6017 6017 1 0 4.434202359118386 8.438743109585952 1.7125707673112331
6018 6018 1 0 0.3867881523629712 7.443730575105998 4.880589386969402
6019 6019 1 0 8.698825899752334 9.552350921792195 2.023508551925628
6020 6020 1 0 9.533360822299949 13.550298216145395 7.611668477783789
6021 6021 1 0 11.562240253369724 8.660863448967975 5.130713122062077
6022 6022 1 0 12.656422096540524 6.102432876273534 10.931493963496816
6023 6023 1 0 4.654402700591297 6.657234411978758 9.930242082391985
6024 6024 1 0 9.050500825048246 2.175115711985757 9.797353873882143
6025 6025 1 0 2.335855495941913 2.923951525437553 9.798752243254976
6026 6026 1 0 9.05553069989492 9.137796440602232 8.872396601545042
6027 6027 1 0 13.338760911397314 6.846674510228625 0.7346095805539243
6028 6028 1 0 3.4037655245482545 12.665237180289905 11.610104913862402
6029 6029 1 0 0.0033174855528370615 8.156596160636079 1.4560874071007288
6030 6030 1 0 0.625808842064417 10.57980559471617 0.7502864470673419
6031 6031 1 0 0.40110172224994994 7.77025799327107 8.988386450599014
6032 6032 1 0 1.7894577998952745 5.2502486777899 9.364382184962622
6033 6033 1 0 5.739598699645914 10.278339113319744 11.391733585224317
6034 6034 1 0 8.4552983478871 4.922939440611235 5.681741034008271
6035 6035 1 0 2.5391550443458044 6.476635082914317 1.0546472074439168
6036 6036 1 0 5.069941882899474 10.99526618319265 11.94848229505179
6037 6037 1 0 9.608886463627641 1.7014419657371869 8.62012142858032
6038 6038 1 0 13.731603860349797 6.9791389958542105 6.010904049740037
6039 6039 1 0 1.7279367145925306 8.868267498870933 10.037030464385483
6040 6040 1 0 2.1990434527096148 10.351156294086037 2.5947086285440775
6041 6041 1 0 0.960682366652618 8.588174636205022 7.14532143151622
6042 6042 1 0 7.51227360101085 1.0312005992816626 6.715681180082607
6043 6043 1 0 12.692385354685108 2.15420378771264 3.130157179261704
6044 6044 1 0 8.210305451734971 5.5778099487270945 7.900367006925543
6045 6045 1 0 9.971941139818703 3.7341592043077294 7.342739841205193
6046 6046 1 0 12.205764519242832 3.533847938350488 1.8549044412237623
6047 6047 1 0 9.920269747003738 4.8011418124273195 1.4640122125632051
6048 6048 1 0 7.587487514049128 8.33578365203515 5.171212010970135
6049 6049 1 0 2.0209049911865082 5.01176371547717 9.18665795790299
6050 6050 1 0 4.554583845710879 14.035556568293343 9.980471522580721
6051 6051 1 0 10.770521458034297 14.011355116129584 3.1258266732364532
6052 6052 1 0 1.742036055631415 2.5492303209083955 12.219890263924386
6053 6053 1 0 12.458108465001164 1.6988668652049665 7.336947148698401
6054 6054 1 0 2.6094574355176414 8.870337465507879 5.2664308156541795
6055 6055 1 0 8.494889698162774 2.849548495903455 1.051930807667897
6056 6056 1 0 9.986954049814733 12.166956331167134 7.290605273946474
6057 6057 1 0 8.248153077169217 2.6488387455440408 1.0018756742481598
6058 6058 1 0 8.670776630102939 0.6490982511858169 13.683497040052853
6059 6059 1 0 1.5545211960086607 1.3281654890979258 8.859068445572632
6060 6060 1 0 11.15424372009689 10.392618444490873 5.392198655747855
6061 6061 1 0 3.259234995873299 12.314017452186224 2.539119041631171
6062 6062 1 0 7.002288809571573 1.514700707390473 4.864958445365355
6063 6063 1 0 1.4467417927457953 3.596431507354641 3.3842019290663603
6064 6064 1 0 13.084282790321362 13.573525552141206 10.830978269717468
6065 6065 1 0 0.6315259536573037 12.169916564372137 0.38505327795073135
6066 6066 1 0 9.996570405775556 3.3931296024969204 4.162149224276639
6067 6067 1 0 10.872131240907219 6.738378496306369 7.4480881741436304
6068 6068 1 0 1.1842633318395828 3.139126466256863 6.40909859988235
6069 6069 1 0 12.223849858905307 10.092685294012918 2.4783682633259745
6070 6070 1 0 8.00945824221518 2.1522571150636343 6.82210163023169
6071 6071 1 0 13.058740189593873 4.948051658084651 3.1807790981409494
6072 6072 1 0 11.68858046677742 2.0332050283185708 4.206459738478834
6073 6073 1 0 3.8821045797668465 7.839066792566576 13.116977654193493
6074 6074 1 0 8.492937236505918 0.9795427144409329 9.409233333886844
6075 6075 1 0 10.809994363213193 5.3793021553173475 9.618605300670012
6076 6076 1 0 6.773735604202252 13.054530552778742 2.132821104178589
6077 6077 1 0 11.517745997481144 1.5967324662983724 5.780575495876135
6078 6078 1 0 2.251321308152305 9.490773695031082 9.984017265339896
6079 6079 1 0 13.28153224230504 10.472257903121898 12.584979774729462
6080 6080 1 0 5.330929453667683 13.967434483493143 12.685132220219195
6081 6081 1 0 9.703294706396118 1.87286985456983 11.026538654412327
6082 6082 1 0 10.304740208087765 5.3248953966914465 12.812529753390342
6083 6083 1 0 13.506250465287899 7.9174382098734615 3.322779032723047
6084 6084 1 0 0.9516649219008017 1.405074866553949 3.0622617382622876
6085 6085 1 0 2.85659994564625 12.859879332242127 10.480442966214895
6086 6086 1 0 4.6069295963355525 7.5371868843537415 8.413964245951338
6087 6087 1 0 3.0440816674770046 10.312350050074155 6.210370544052736
6088 6088 1 0 2.636321117010599 2.5727120889284865 7.063767460791425
6089 6089 1 0 13.382539983638699 11.537887462780061 9.436912230585854
6090 6090 1 0 11.80289907877105 0.4803501745173566 9.48250885725713
6091 6091 1 0 8.142063053055448 1.6738005885326745 2.238008339142978
6092 6092 1 0 6.881293574677534 9.826511146775903 2.004836170559276
6093 6093 1 0 2.0595287314889568 1.8715600135279007 13.43813958214664
6094 6094 1 0 12.896145152211592 9.70769978057139 9.993440435380554
6095 6095 1 0 5.847391780703083 0.7754803279699932 9.407395001853235
6096 6096 1 0 2.181636535037412 5.824390036783222 10.885805288102473
6097 6097 1 0 0.38995799810367904 0.5524077765558323 11.72273547529136
6098 6098 1 0 11.198139542431933 2.91104718909694 8.204547092655767
6099 6099 1 0 6.2035843496587155 0.4114096184187485 0.7187995038405599
6100 6100 1 0 5.056880309663311 8.567626064380546 0.11982412020120636
6101 6101 1 0 8.182053084990427 8.79739183563374 3.523661362556672
6102 6102 1 0 8.777934846227838 6.297442292789107 12.79078472400123
6103 6103 1 0 12.320698890772263 13.614588482938224 7.646363842533051
6104 6104 1 0 7.487054528159872 6.504673771137297 7.890302651754772
6105 6105 1 0 11.904921738612158 5.043014077732286 9.875138155214294
6106 6106 1 0 0.6555558365056139 9.314708805068987 13.419927514614391
6107 6107 1 0 11.704654634220562 7.2131498257015005 2.978653986035078
6108 6108 1 0 5.426917453794331 6.806469267420732 5.132674331284303
6109 6109 1 0 4.154164267959266 3.088740505394985 6.215595198691053
6110 6110 1 0 1.410519632165916 11.253366936804644 6.799653276487223
6111 6111 1 0 11.944912153372014 11.768234101249188 10.150546278772385
6112 6112 1 0 9.338469721517844 10.828834717430667 1.2338682980890316
6113 6113 1 0 2.6732197046431816 9.86696889367949 6.359223717228155
6114 6114 1 0 9.025750152823031 12.28514509522594 8.606951274070283
6115 6115 1 0 4.386174072180974 7.499035544100946 9.38761437027759
6116 6116 1 0 2.8539546125773434 10.187009778612474 0.901840735728905
6117 6117 1 0 6.497605176431786 2.3112597055338457 12.342955616904154
6118 6118 1 0 7.960214371916993 12.281713616751828 10.96809333847715
6119 6119 1 0 7.015802622912424 4.970101599064623 8.770521017049639
6120 6120 1 0 8.100539586707068 11.055199118660052 1.999279712777241
6121 6121 1 0 4.017609489388867 3.4303080331067166 6.320858912502487
6122 6122 1 0 10.630715793528257 2.347224046848309 8.07679174332486
6123 6123 1 0 11.90220402621946 12.796027899701901 8.779512577184603
6124 6124 1 0 12.531317642011812 10.711132411367322 6.031800695198586
6125 6125 1 0 8.925440854733223 5.114674513867428 0.0811848264582407
6126 6126 1 0 8.237262021369844 4.500430205532277 7.4617760302896725
6127 6127 1 0 5.469746580427437 5.649906176521394 7.417264594001176
6128 6128 1 0 1.8088507771638371 6.5918232119685 9.046688818483991
6129 6129 1 0 8.524033389326327 9.657294745899977 10.518283593097188
6130 6130 1 0 3.6419878281150266 2.0806603295092723 11.37612774288804
6131 6131 1 0 9.361929937381483 3.3114670962587947 4.510750207952851
6132 6132 1 0 4.7334417248886735 1.4935278062009716 5.332302214743245
6133 6133 1 0 7.240041573721302 12.257101739586703 1.0294363067109136
6134 6134 1 0 9.570860338021458 4.872712690127461 1.4093694890605695
6135 6135 1 0 1.0018896174389575 8.784185260588519 2.6449976320362945
6136 6136 1 0 9.722285241759305 7.246305147177219 5.513639430551853
6137 6137 1 0 2.0592125484059363 1.7850526911597884 6.211915582293258
6138 6138 1 0 10.032586678823556 10.026930527429258 6.03712770140167
6139 6139 1 0 10.035767854590945 8.398475818573344 9.480129390082062
6140 6140 1 0 3.826263812895762 1.6439584439154646 11.89442959777153
6141 6141 1 0 9.568715782878636 1.2129965474464208 11.652580394810403
6142 6142 1 0 9.203462561332405 6.334004581286909 5.1076428771388285
6143 6143 1 0 4.323635362244107 9.051086608492056 12.68491510956723
6144 6144 1 0 10.098251925656456 8.335341079356104 5.12479866720581
6145 6145 1 0 0.12036727009623858 6.943978801184454 10.673197213266299
6146 6146 1 0 7.816257259999235 11.612352619124378 4.241041022056535
6147 6147 1 0 11.405500680529228 3.1270489438294606 5.563341836289687
6148 6148 1 0 0.4724646420637494 1.3125210601069854 12.381740080435357
6149 6149 1 0 12.504633361829331 3.3996941985669644 1.745274391828578
6150 6150 1 0 1.2386041279718025 12.334532163263686 9.090263946853227
6151 6151 1 0 1.1177613448491195 4.864033754470569 1.319567202773834
6152 6152 1 0 10.582240245128306 7.277129027269576 7.74313010527971
6153 6153 1 0 5.770888730605669 12.338013171356533 5.282130456196072
6154 6154 1 0 9.236323526430043 11.667735259176022 6.958074217474852
6155 6155 1 0 1.467279275925831 12.053343257481966 0.5010726141408819
6156 6156 1 0 0.07488333077609736 2.854250180770218 8.439699646988991
6157 6157 1 0 6.638851998033393 9.948712036152449 12.981901942290058
6158 6158 1 0 12.511435755715649 8.434600602181915 12.227795698463241
6159 6159 1 0 11.905223074871925 13.40324479911135 10.617093140141924
6160 6160 1 0 1.9389770946052587 6.432175205466149 4.163578553889002
6161 6161 1 0 9.656443610920618 2.8198683658297607 6.526133105535716
6162 6162 1 0 4.945954561603234 0.7926965465336429 3.1827764325792116
6163 6163 1 0 12.576093158580061 12.540971815875412 11.5369277088522
6164 6164 1 0 4.956315938578662 10.042168267169108 0.9072875873970553
6165 6165 1 0 5.641873911769256 1.3495540260642005 6.504454579359591
6166 6166 1 0 0.8854896394531525 10.912980123288968 12.620190197150727
6167 6167 1 0 3.733262616317591 11.539376195806021 12.36824067670348
6168 6168 1 0 10.857024995734578 1.0823088597581918 11.295268354644083
6169 6169 1 0 8.70566054032412 13.815763892440826 0.22297693998383766
6170 6170 1 0 2.7911299194924295 0.40702391972719537 11.535817752058547
6171 6171 1 0 9.538153291236444 12.114926150182859 10.782737451503502
6172 6172 1 0 1.1599542358139743 13.808770524574568 6.105186844002295
6173 6173 1 0 13.15996339648812 8.683416844117444 1.6902631388655684
6174 6174 1 0 8.430470408458932 8.40927779335897 6.003465676729727
6175 6175 1 0 12.693379071997134 5.526089179897394 8.217261509192326
6176 6176 1 0 5.040617049688391 9.727153210008705 1.1254835317523997
6177 6177 1 0 12.723778916065324 1.6521036541501612 0.4063824925982439
6178 6178 1 0 3.0061297069233874 4.693226559795635 2.6932471038536443
6179 6179 1 0 0.36686742358727026 11.193522239756627 9.875101495380667
6180 6180 1 0 9.93545371174727 9.106864881930877 10.0693300189331
6181 6181 1 0 13.936692965040784 2.327049755902652 8.223604761700487
6182 6182 1 0 4.6955999640607216 10.102400799841496 3.8804790049039553
6183 6183 1 0 12.328312574676678 10.87354196434343 5.863867928467698
6184 6184 1 0 13.238384087337435 3.6666590803919332 3.407388096055399
6185 6185 1 0 2.1779639512638207 8.970617249550932 2.5113460746290803
6186 6186 1 0 7.705585070770479 3.5480078799993318 0.8420497835557398
6187 6187 1 0 3.3403086116827483 1.8513641283120994 2.2357468814216244
6188 6188 1 0 7.596283712525277 8.044302869076185 13.657208567854852
6189 6189 1 0 12.549109676282963 1.4572515954465406 0.31477473888239504
6190 6190 1 0 13.652570049326528 7.866793667315977 11.040371244430549
6191 6191 1 0 13.515716447514952 2.884229717104203 13.149912819328799
6192 6192 1 0 10.563796624411259 4.4520562828590355 0.7205735494119837
6193 6193 1 0 10.754564877979488 9.37368838603579 2.363449600448636
6194 6194 1 0 1.1751801750192028 7.791848735190537 2.4263314309714983
6195 6195 1 0 10.780584460319753 0.16198111690139955 13.064073937674037
6196 6196 1 0 5.717017822665699 10.330110462029353 9.854291810639937
6197 6197 1 0 12.646554399336285 11.123040328145601 4.227813860059254
6198 6198 1 0 5.4178709204822555 9.885742076896392 6.747452029426867
6199 6199 1 0 10.740988974528852 2.2516512093968895 9.60400865766224
6200 6200 1 0 5.641025203516216 12.917661111377615 12.659093005377072
6201 6201 1 0 2.984635135282078 4.82802167715344 8.371652158309137
6202 6202 1 0 11.853606770442319 9.50991492800916 11.939473525225097
6203 6203 1 0 11.911972535370921 1.5201633982722504 4.445513844103793
6204 6204 1 0 9.830454636498427 10.193816185984948 12.968772633817164
6205 6205 1 0 2.07260704540799 3.7861405549802427 11.284611373743791
6206 6206 1 0 0.7601448904200975 7.0709175202075345 1.70841762968144
6207 6207 1 0 12.890848737757757 3.4724431276012195 11.657169892562546
6208 6208 1 0 0.05112464789169371 8.82693588130144 11.932226163432292
6209 6209 1 0 13.472439178740148 3.4170196816994958 7.552830529695483
6210 6210 1 0 3.411028472924113 11.893530712926664 9.081189174247102
6211 6211 1 0 7.135787063394055 10.859750282687116 12.660247070312762
6212 6212 1 0 5.58494412307562 3.9915036391084544 9.465387678339873
6213 6213 1 0 3.5904674277013857 2.3257660146527317 7.7861295003675455
6214 6214 1 0 5.15422017763666 0.05997769220054631 9.10763119043007
6215 6215 1 0 6.286377800712089 9.390378064389576 9.828832385881718
6216 6216 1 0 11.373415251829476 12.91382250571023 6.928882068884507
6217 6217 1 0 2.541913421810758 7.707553526970218 2.1201073131770722
6218 6218 1 0 2.2630538105879636 2.4173909751308353 4.469173544156007
6219 6219 1 0 0.2611644930757724 9.531523038758845 2.3914040939689833
6220 6220 1 0 11.390760285387145 12.64016633408629 11.303217229534615
6221 6221 1 0 8.92182276956991 0.10583532335178922 4.055355420601733
6222 6222 1 0 1.8240455147298937 2.6751632518503143 9.703052584659478
6223 6223 1 0 2.2733643983784337 3.237252941987106 8.841708006197784
6224 6224 1 0 3.767793929284366 10.454622748539132 13.94309300624794
6225 6225 1 0 2.548539905960122 5.178419894416298 2.7215785026537023
6226 6226 1 0 4.37259822105086 7.38146539623587 7.1885845433115945
6227 6227 1 0 0.06495672432281308 5.141442972947592 7.938913227718655
6228 6228 1 0 5.938960967739529 0.19573051772771052 10.690604528398334
6229 6229 1 0 3.304820838402065 3.9506803581231122 13.608132891440562
6230 6230 1 0 3.260221440986094 3.4479061359202277 4.03082945998182
6231 6231 1 0 7.643209413204289 0.7632699036797786 6.3337013309828345
6232 6232 1 0 12.417214552819742 6.876411672936883 12.654120187856266
6233 6233 1 0 2.193350131732845 3.3901442020731287 11.001606295992222
6234 6234 1 0 12.833061881329208 9.438178268793928 5.553584898353993
6235 6235 1 0 4.794958343455463 4.5723972222264955 3.6178396536836583
6236 6236 1 0 10.716747153986288 5.771621425393326 7.052844177162551
6237 6237 1 0 8.503053908877416 2.729329331232748 6.875392940401326
6238 6238 1 0 3.26230901210022 8.087873417810833 3.579190485122341
6239 6239 1 0 13.8232679513361 9.243104119339698 4.237352287578095
6240 6240 1 0 7.801201666928579 2.419905062639062 1.2517142322678847
6241 6241 1 0 11.89601181069191 4.097439633538732 3.0195740090399554
6242 6242 1 0 4.631431613886332 7.0687474947345725 12.015424766909122
6243 6243 1 0 8.36620805750494 11.938333923393781 0.8672258331012548
6244 6244 1 0 5.7912253574829915 10.525693916442 2.8349791866455694
6245 6245 1 0 12.390599735422686 6.647121325727037 3.9546076657536227
6246 6246 1 0 13.992456597323178 11.911993224328269 9.01340358687365
6247 6247 1 0 11.290147140306656 10.77417070156864 14.013597808769012
6248 6248 1 0 13.957268348842778 8.897361873884739 11.896601099103904
6249 6249 1 0 13.29900120171947 0.30070603676503876 6.611237152592088
6250 6250 1 0 1.4112076136826681 13.741654102333408 0.6343322572180808
6251 6251 1 0 10.853083944328903 2.3460278217877 8.826394396614283
6252 6252 1 0 0.24026715117206984 3.6372466096400173 9.69094966159954
6253 6253 1 0 6.857283300073161 6.029336316105008 4.426434915300257
6254 6254 1 0 7.896905924087691 13.112109760095684 7.340632724618797
6255 6255 1 0 9.613721288611636 6.808147606478883 10.63017352213335
6256 6256 1 0 5.322767080739842 4.393971120477558 10.243269166065657
6257 6257 1 0 9.5974099520933 1.2825039780669625 11.139641745611147
6258 6258 1 0 1.0836342251255735 0.4899657941381979 0.9907230897098204
6259 6259 1 0 10.850354080745694 1.4729425731112384 11.025321884405033
6260 6260 1 0 8.340414079761937 7.408412629674704 6.627992517891087
6261 6261 1 0 1.4687813818525703 12.419442336216433 11.283306483726815
6262 6262 1 0 5.773936302272722 10.141859083407612 13.667158353137145
6263 6263 1 0 0.14595567806969323 11.442307521545237 12.72766734274848
6264 6264 1 0 8.76265759253136 1.895901935324551 10.356155935644173
6265 6265 1 0 0.160376853436985 12.558403779362097 3.5135001639724424
6266 6266 1 0 10.596978197381226 0.545009525927323 5.816377860157254
6267 6267 1 0 8.69587972684937 3.6322584842048653 4.8473064013047065
6268 6268 1 0 12.877607615457935 13.382667781991696 11.196427745862296
6269 6269 1 0 3.4343879882932478 5.604515546364801 5.278252514975839
6270 6270 1 0 5.708831456405658 8.109017494659353 1.7855312783791288
6271 6271 1 0 3.125841701491749 4.097290690984413 8.713829355763927
6272 6272 1 0 9.163538151372823 12.46964682811439 6.548520724998591
6273 6273 1 0 9.33765299190233 0.2147493041200029 10.409686332284489
6274 6274 1 0 0.735354945669735 11.498378958134085 3.6191966077696973
6275 6275 1 0 3.629757096638884 6.269051457643325 7.164240100156663
6276 6276 1 0 2.2215297827116745 7.576519005369438 11.208253804601425
6277 6277 1 0 13.22679207592249 0.5485585666553005 0.6918790753563581
6278 6278 1 0 4.095938191828863 10.643389822170917 3.007265868462654
6279 6279 1 0 8.758903114440695 7.19515829006064 6.612715219174296
6280 6280 1 0 10.545221740855316 5.545705430610277 11.631528203995483
6281 6281 1 0 8.610298268308119 12.269483387417068 4.854601378712483
6282 6282 1 0 9.680797911535949 8.400852155045268 1.3159289489581485
6283 6283 1 0 2.454755299500878 11.128557566039422 5.614924489228717
6284 6284 1 0 5.091138727310545 13.927026268958597 8.72274924842793
6285 6285 1 0 0.7944116031593961 5.72372198610308 8.717934801073897
6286 6286 1 0 12.10153641508617 1.1117402430259964 9.608810233744663
6287 6287 1 0 2.8612816560290546 2.9431526798195127 2.56409067029198
6288 6288 1 0 11.18448174895039 8.638901830918734 0.37198739168413897
6289 6289 1 0 3.4613057331805215 5.932146852522948 10.274973025810192
6290 6290 1 0 1.855216774340886 4.333943219755702 5.444227137246943
6291 6291 1 0 2.9311686245272845 11.590391552567718 13.254217488777579
6292 6292 1 0 8.449964205342695 9.750373678780639 7.164789089086583
6293 6293 1 0 5.446441303225551 0.2274729443172937 11.4848171420101
6294 6294 1 0 10.215100744277578 1.5044532407717726 0.6689342167397442
6295 6295 1 0 11.025410882902825 4.305832359728371 3.2995480650280835
6296 6296 1 0 9.939259079005256 8.520792794991197 2.9221569815601702
6297 6297 1 0 7.546188592930874 0.6074152612971782 6.092986369517566
6298 6298 1 0 4.594314983695844 0.49164721907385994 2.970661639097231
6299 6299 1 0 11.591184379932935 13.23242672436022 12.140458883989384
6300 6300 1 0 13.666350417680402 2.4298877735095137 13.2756039171516
6301 6301 1 0 11.892070222520855 0.7502695260304262 6.447278949275622
6302 6302 1 0 4.262213436250808 9.940659609641951 0.6319917206859686
6303 6303 1 0 1.4191749011338135 10.943411949548807 9.411125074749412
6304 6304 1 0 6.06940941615209 0.012848857925942724 5.97050108885319
6305 6305 1 0 5.701441014391391 11.692957440288664 8.754919746691318
6306 6306 1 0 0.30935888203817674 0.9159530817137921 12.9897414342148
6307 6307 1 0 12.31892861167909 13.612832947216644 2.7823998751476164
6308 6308 1 0 2.556494903199506 10.53023077423427 4.152008026981759
6309 6309 1 0 3.29188310609881 5.522887470327688 5.651992369982469
6310 6310 1 0 0.713890766233045 2.041549633777211 0.5997356872176847
6311 6311 1 0 13.55966880243223 13.466006113465886 5.462372966018354
6312 6312 1 0 6.921193825255483 2.9371644434582906 5.472838793196385
6313 6313 1 0 2.825258089398139 11.021013027541077 13.659960280530074
6314 6314 1 0 12.162062146534737 12.982447153157054 7.8470143784050626
6315 6315 1 0 11.30890633533447 11.185781440279357 2.5755861747043145
6316 6316 1 0 0.7339789246519868 12.460935354564029 0.730718857763914
6317 6317 1 0 10.046289650941484 8.834686069419474 2.6071211219324284
6318 6318 1 0 5.210660961683136 1.001638880754703 5.2147740371742906
6319 6319 1 0 3.060620967333258 11.967457068531814 11.32332952100494
6320 6320 1 0 5.059324986237701 3.4155731387596124 9.336371839993905
6321 6321 1 0 10.778588454527327 1.5562208708081713 8.41892185053984
6322 6322 1 0 12.152532748954998 6.686847147990751 11.171872542802541
6323 6323 1 0 10.79505800597214 3.9857770934419157 0.2627597202651722
6324 6324 1 0 4.567619470301887 6.556274869719266 3.316177461366984
6325 6325 1 0 10.569817006732574 3.7142140008194624 6.910103524425174
6326 6326 1 0 13.360026631913282 1.0564121152357078 7.487388994554679
6327 6327 1 0 13.053480220560486 6.2516306630749785 9.158004833093056
6328 6328 1 0 8.314302708340842 0.34166326326341506 7.7246086960292
6329 6329 1 0 11.293622915678007 11.37701002763738 10.5400571571778
6330 6330 1 0 12.708061990137784 12.183699983111524 6.748629892068811
6331 6331 1 0 7.595094247003104 1.7767702298236996 1.111683663526947
6332 6332 1 0 8.603025935814134 12.525414870015819 5.117675220832297
6333 6333 1 0 3.209095493412922 8.557678761139199 4.763017202782362
6334 6334 1 0 0.9389960138264188 8.069500101483866 2.353519098574869
6335 6335 1 0 12.949032733672622 13.587427464313933 0.9648939663318836
6336 6336 1 0 2.928498949166191 4.610650485864598 6.49316646175657
6337 6337 1 0 12.08798339207051 13.106540613606832 12.07942159747321
6338 6338 1 0 2.4472998886558557 5.87279976498598 7.406900483753275
6339 6339 1 0 4.7024935184815435 3.204456800899268 5.55143390346062
6340 6340 1 0 0.9616079692962052 5.587279968176143 4.923141064539914
6341 6341 1 0 8.605818782926328 3.4193150980456273 1.7255730896989627
6342 6342 1 0 1.6028002902870973 6.278972567099365 11.401221743842061
6343 6343 1 0 3.066571745372381 8.862761888653024 1.8163528069566397
6344 6344 1 0 4.320265944271558 13.56474108079244 9.544012250662531
6345 6345 1 0 11.516742434909196 7.1578700577455345 12.994898685665227
6346 6346 1 0 11.656221264019386 10.209149783033006 5.211085115908776
6347 6347 1 0 3.6608113883535904 3.298190320577403 11.042061779045099
6348 6348 1 0 13.534537273179119 13.56706617874873 13.016991186644617
6349 6349 1 0 4.180912379465042 7.247613445542072 2.634342277889017
6350 6350 1 0 5.975904661106282 4.8727118677653385 7.409998049174032
6351 6351 1 0 9.726371193418778 2.141349813449817 0.049104798867773934
6352 6352 1 0 4.591935214947962 7.880086595158047 8.892077087374279
6353 6353 1 0 6.148231447898887 1.6817435821241598 1.9755497522106806
6354 6354 1 0 0.8453949525817404 3.1117618476821662 8.925587916709938
6355 6355 1 0 10.72971569754058 13.887067136709803 8.79214293755346
6356 6356 1 0 10.032462898519855 4.663924897696603 1.2352708435906143
6357 6357 1 0 4.81775888671384 5.297357598987635 12.85074163465863
6358 6358 1 0 8.38957228100282 3.9814885585515696 12.406190399624277
6359 6359 1 0 2.711034123182036 7.008018583010198 11.86865003280657
6360 6360 1 0 1.675205036389922 5.970739652541253 8.953506761304848
6361 6361 1 0 4.761848650323599 7.478048641231608 9.447328452037878
6362 6362 1 0 7.859705700731892 3.765881580011059 6.05760547785349
6363 6363 1 0 5.928289934517405 12.434659418380436 5.515109792682999
6364 6364 1 0 3.0779349320000584 0.8714686524849464 9.8988735497997
6365 6365 1 0 9.070074593545243 8.299394766790591 2.004846237820534
6366 6366 1 0 4.2810018322518015 1.6505164284941964 12.865477023128499
6367 6367 1 0 10.375841120292757 3.9570226260368178 1.659014959803405
6368 6368 1 0 4.181092152166484 12.425215298948382 5.879110684236228
6369 6369 1 0 6.106616824837211 6.094213962536158 1.6839619094619511
6370 6370 1 0 12.123964509498458 4.055358257504284 9.120275928916415
6371 6371 1 0 0.5803002095785389 10.733476065590287 4.860742608491723
6372 6372 1 0 10.018688134761632 5.165607746285443 4.440893984107269
6373 6373 1 0 2.3996321184985048 3.3007020342606355 6.781022478674405
6374 6374 1 0 2.5950647269245133 3.4242862178034876 11.929187399011724
6375 6375 1 0 0.6553016972897334 12.148931840824105 14.01325905288878
6376 6376 1 0 10.912662045662222 0.6017106593469209 13.1767556388997
6377 6377 1 0 0.3438462597002091 5.899504468500469 6.084872745652929
6378 6378 1 0 0.17979860587003021 10.22767553210493 5.831674060797227
6379 6379 1 0 5.485277491715555 6.431668660045327 5.482890645227779
6380 6380 1 0 0.9342056117207624 5.275014393004412 12.477137084303
6381 6381 1 0 9.022546273338458 6.666549605378975 6.533068082743949
6382 6382 1 0 3.487368346450143 1.8502731931421117 7.540040462852563
6383 6383 1 0 11.964395691460327 10.857803272781567 13.485447707308182
6384 6384 1 0 6.150692771399078 0.8772585352154174 3.2132623196850556
6385 6385 1 0 10.374870724474023 5.992696625295774 13.265243625219481
6386 6386 1 0 13.14924075774941 6.374863270321324 6.25125697169623
6387 6387 1 0 11.985198513504374 5.825460387480484 7.402537615770821
6388 6388 1 0 1.9787332113364913 10.68694037365428 11.964317939417645
6389 6389 1 0 7.527372548683679 6.072690473062779 10.51179335974122
6390 6390 1 0 1.9804892704251962 6.844150093486009 8.72366351977538
6391 6391 1 0 6.2242732840622 5.788613312475058 13.89467835714665
6392 6392 1 0 1.3652352023353398 13.422243374270273 1.2257434916974352
6393 6393 1 0 7.693420301090182 7.501042420545519 4.759600359040935
6394 6394 1 0 5.138036874784337 0.4114943059945004 11.247739915267282
6395 6395 1 0 7.761995627775362 6.558450764473662 5.378588371927217
6396 6396 1 0 2.1545555492125494 6.5343252763861805 13.599188290748785
6397 6397 1 0 2.5198902405300982 4.345296983272876 4.536382401438828
6398 6398 1 0 10.43653177386773 0.862109774494878 11.498105673236015
6399 6399 1 0 3.2386756391580156 13.178873250479255 5.5157112333308955
6400 6400 1 0 13.59644869122924 9.856892377369185 3.0444639147856907
6401 6401 1 0 7.369239250078247 5.666635959396275 11.647467376846498
6402 6402 1 0 5.240575832661375 0.2545894498044075 1.3999469607302129
6403 6403 1 0 12.001529648113262 7.512247164355777 2.7541694524007942
6404 6404 1 0 10.33502728877669 7.694581984430428 2.8446967100780087
6405 6405 1 0 7.725055891937505 9.283266451096766 2.113522694197742
6406 6406 1 0 3.660506398468454 11.56315444189111 8.546815621522002
6407 6407 1 0 7.69604747909645 2.622856378679624 0.23762380207834505
6408 6408 1 0 9.405461914911989 11.328822611831189 7.031899897170603
6409 6409 1 0 1.4308540945404824 10.214815217112266 12.28131337845202
6410 6410 1 0 5.730870009896912 4.854145990550771 5.482822953856614
6411 6411 1 0 0.4564638100540552 4.954607031131806 1.8250753313183559
6412 6412 1 0 10.078471478455482 9.601597400619289 7.164010388712
6413 6413 1 0 9.042099729827306 1.9876000916667926 6.398414589304541
6414 6414 1 0 5.436961429458753 1.7265111189803029 3.7801117796602686
6415 6415 1 0 10.945062232992766 2.6665171620114347 9.067615493190658
6416 6416 1 0 7.4907867108171144 1.9027899266984862 13.760137864279223
6417 6417 1 0 8.736275141936275 9.390183269045263 5.869050654791274
6418 6418 1 0 1.216692329929136 11.239798113213954 2.684451036821063
6419 6419 1 0 8.000252248199871 4.599267028780855 6.410768742531868
6420 6420 1 0 7.832848992560465 8.268472540825567 5.02712623374828
6421 6421 1 0 3.59129986080732 6.745582603768373 1.2988485319839507
6422 6422 1 0 8.099273149059256 13.097712749460944 5.757287863899245
6423 6423 1 0 13.421608822605076 3.9387257706424688 6.781175052942261
6424 6424 1 0 0.8072642548644771 11.41895886852414 1.692834196212913
6425 6425 1 0 8.215240235040449 12.995031467605763 11.661425673490786
6426 6426 1 0 1.0076250271489056 1.7471162804838185 0.06926795386515835
6427 6427 1 0 7.192107568918292 4.820974391172501 3.5705536735871473
6428 6428 1 0 0.9616400111335929 1.9893397338926992 6.8328880715396
6429 6429 1 0 0.8579139426255752 8.295268516187402 7.608434163088743
6430 6430 1 0 13.400746744756304 12.285525339895742 7.734068665348978
6431 6431 1 0 0.00047114243375241275 4.959420847407256 5.933800135547227
6432 6432 1 0 4.529353262238673 4.195937114008359 7.212149686362642
6433 6433 1 0 7.1446732620694835 7.8128078083199695 1.2714428631139767
6434 6434 1 0 1.5237041012797576 6.3353033754133445 5.2417225717064015
6435 6435 1 0 11.057438882441001 2.8064498181513997 13.888324325194557
6436 6436 1 0 3.175060481355454 11.889791024593324 0.08871434677966848
6437 6437 1 0 12.412767335439575 13.40299331744675 1.5310502233650958
6438 6438 1 0 3.7050675739618986 1.9010386767719434 5.784135145680894
6439 6439 1 0 11.924714898748801 13.716034144832202 5.647605991444812
6440 6440 1 0 2.9792532724624685 4.031364780640479 0.8375097450003657
6441 6441 1 0 11.058065404805454 5.64506812332535 13.358948344966567
6442 6442 1 0 12.665208694396734 13.060084032794963 1.2088649580068156
6443 6443 1 0 1.335645501027985 1.5307557111672379 5.066445050815912
6444 6444 1 0 2.03019355567611 12.904141767624612 6.835289024633171
6445 6445 1 0 3.259148260854777 12.66383403355927 6.2785542959470355
6446 6446 1 0 6.2937496990202275 3.0015896891437603 6.123682174113306
6447 6447 1 0 1.0129030604167155 0.23574098687988268 13.576096207240964
6448 6448 1 0 9.727204751776512 1.0217238032519 4.522526666383229
6449 6449 1 0 0.9691063824450754 5.218287756629315 7.841640216186303
6450 6450 1 0 2.995365488126638 2.9667465975529157 4.155805251901406
6451 6451 1 0 4.652966134833312 1.9600987115890969 9.58851797633992
6452 6452 1 0 3.699527985179486 3.858919755719626 13.048488551220764
6453 6453 1 0 7.199040627786405 0.898112694184408 10.767261032855128
6454 6454 1 0 1.5327602141200567 13.559633223265804 2.127048120080321
6455 6455 1 0 2.8758530995065317 10.973503455927208 9.362790123117817
6456 6456 1 0 9.656755559984287 8.012989661811279 3.4051438703718295
6457 6457 1 0 13.651923452593438 3.5962753013247517 2.4220195370485724
6458 6458 1 0 1.8307236026883393 0.2692068720971511 13.383880490778575
6459 6459 1 0 13.602368346191756 11.014138707821594 5.8822313194899225
6460 6460 1 0 6.477793182663425 1.0406038866186889 5.097781713274499
6461 6461 1 0 2.563234725448305 3.934972633199097 10.858983602812906
6462 6462 1 0 0.18898608882088874 2.706532736659869 8.072093940301565
6463 6463 1 0 4.690796426267971 11.818369716312356 3.44074830634408
6464 6464 1 0 13.7939121531704 2.825237620224922 1.4594435504384997
6465 6465 1 0 2.609765898674896 1.843536597759591 13.714269710706139
6466 6466 1 0 11.67537171053756 0.9937322030601522 3.3288723104543583
6467 6467 1 0 12.316661405444494 13.14744742321948 0.8716279433288419
6468 6468 1 0 4.119038234868176 13.479923414261403 2.473010646758905
6469 6469 1 0 2.068570900492413 11.614042235646524 1.3928506123420445
6470 6470 1 0 1.3079346241272716 4.376815869222475 2.166952847515715
6471 6471 1 0 1.3751966914207907 1.5385767150677097 10.20088691806648
6472 6472 1 0 1.8180620236338432 6.787407464105962 13.37108170133159
6473 6473 1 0 11.521211892681702 4.359963723979647 3.418822061809481
6474 6474 1 0 7.0885244420813125 1.9685891759181104 4.138797986716351
6475 6475 1 0 3.188279550651636 5.3178680226874295 7.015476972193993
6476 6476 1 0 2.513880942036555 0.5752436464333405 9.716137642500254
6477 6477 1 0 7.005840543992911 10.072541407715029 3.1833964865880775
6478 6478 1 0 3.513219850703851 10.4072378703185 11.454263409126234
6479 6479 1 0 2.700704798832387 7.717211093732108 2.9863404170288455
6480 6480 1 0 13.22086436179596 8.129476540491067 11.875314583031187
6481 6481 1 0 6.477736346859732 11.927089221798498 7.2549948753903335
6482 6482 1 0 1.3083272457663038 0.33697290600392454 13.30580320056753
6483 6483 1 0 0.7630798047878109 0.4631441314983442 4.7701295019965055
6484 6484 1 0 2.8373393267932885 7.171318005857393 13.924053809282444
6485 6485 1 0 12.674566740753521 12.186287310676565 11.86572967440625
6486 6486 1 0 3.015858205401184 7.070819262605264 8.388054142463687
6487 6487 1 0 4.2992811016488925 10.673239020663255 4.539799982910267
6488 6488 1 0 9.532042669561438 7.397399075639042 5.40300153393396
6489 6489 1 0 9.552146976484423 3.340020722406753 12.78465558913621
6490 6490 1 0 13.70871557057037 12.092272208952155 4.4527051735770495
6491 6491 1 0 6.314054989021066 9.27970377040331 11.751752657911657
6492 6492 1 0 10.726130758243725 7.2061051731033965 0.17719767312599885
6493 6493 1 0 7.254263763309686 1.6868746653045592 13.60515380202741
6494 6494 1 0 4.222280191740573 5.11532337192659 12.09362046714865
6495 6495 1 0 7.459648135194498 11.542107527572393 5.24559269735955
6496 6496 1 0 10.516575686768485 4.597843096161218 8.642885400919827
6497 6497 1 0 5.399444861191915 10.343158777229442 0.9731785824472996
6498 6498 1 0 5.2936309884348445 7.017072872625968 7.112908904453633
6499 6499 1 0 10.502844074278414 9.474264198082155 9.26366713857038
6500 6500 1 0 3.985722381434475 6.350636286785809 8.828701157593608
6501 6501 1 0 9.000512622115163 0.7324922516386946 13.71231554598586
6502 6502 1 0 5.415557464748024 2.63706761843345 6.748748213551632
6503 6503 1 0 5.676239118173139 10.837745869708614 3.5419530783089894
6504 6504 1 0 0.9931417739843215 12.684149571684637 4.331427681132122
6505 6505 1 0 10.98884057540086 1.6917234690969856 3.4744733388154856
6506 6506 1 0 5.979010758686987 1.5706337459225637 11.128840461600344
6507 6507 1 0 5.392644323808143 5.381953650106284 13.36637556544793
6508 6508 1 0 4.3912876011145485 1.2139870826725023 0.36426663110209984
6509 6509 1 0 11.393090850099446 5.710681575461194 4.63109346367931
6510 6510 1 0 13.808939837621102 9.499704677231707 5.864886072268698
6511 6511 1 0 2.5162497078172263 7.177041146423362 4.303204413685221
6512 6512 1 0 2.11409306334761 7.101912164644132 6.542404128414251
6513 6513 1 0 7.3063737653914504 10.539886907996031 6.9586254618556405
6514 6514 1 0 4.965378585783993 13.073882728969412 7.137194149458101
6515 6515 1 0 9.793217723953239 1.533360426754995 3.9434987535599704
6516 6516 1 0 10.13402856761282 9.09590910547691 0.07645600778735268
6517 6517 1 0 3.867997054191963 10.004091562031759 0.6990639255756079
6518 6518 1 0 11.432292859256888 0.33739866121529366 13.821729292490483
6519 6519 1 0 0.3763542231367395 3.306306846562109 4.519401897487333
6520 6520 1 0 0.20215397142216457 6.027545196984383 12.302217217222893
6521 6521 1 0 1.0307897927495782 8.260451847273563 11.98830644519311
6522 6522 1 0 10.363605224351506 11.532731951919734 10.36805592175038
6523 6523 1 0 13.285135712273101 5.265568317009265 2.7957386618016167
6524 6524 1 0 6.790004329971314 12.774124834148264 12.994680008039206
6525 6525 1 0 11.12615677321306 12.301620326295364 10.154796942786687
6526 6526 1 0 11.74293845189754 12.927510134580343 8.84547692445395
6527 6527 1 0 8.419441568053085 3.250033012899703 7.645047968154237
6528 6528 1 0 7.412937900064327 10.590403154647635 5.133980972715518
6529 6529 1 0 6.391255726579805 6.226100946536705 6.5413794290804415
6530 6530 1 0 4.570919444799241 8.189793427992699 1.0136479621118788
6531 6531 1 0 8.83698634716919 5.31307326278827 10.453769282764556
6532 6532 1 0 2.720765865597857 13.225210490383024 8.255506464744977
6533 6533 1 0 12.744981188277038 10.227743998259129 9.079296926566675
6534 6534 1 0 1.2117954539238105 11.768673970507361 12.617287454324996
6535 6535 1 0 12.347502027572137 0.21779559641490223 3.2041847064390376
6536 6536 1 0 8.246393069454934 2.174541828032268 9.715817991645068
6537 6537 1 0 7.367477718334638 13.03521162554307 3.1570581926454735
6538 6538 1 0 10.563993043799574 5.267580646734088 5.8638745226772695
6539 6539 1 0 9.96118672484529 11.965684166487213 2.3408460968229416
6540 6540 1 0 13.717571060529338 1.9534883837652215 10.722304674967
6541 6541 1 0 4.889188630707189 10.511362580640274 8.783288627591736
6542 6542 1 0 7.754875276266575 8.055561816841466 6.897229236820192
6543 6543 1 0 10.728940943592933 4.60278772782122 8.736623711155415
6544 6544 1 0 8.279564167649353 1.1483165856072872 7.887964041217501
6545 6545 1 0 4.013717496555552 8.684172020159743 0.20986461225461783
6546 6546 1 0 11.137752944088922 9.00972134041665 2.787382824528729
6547 6547 1 0 13.027525339208315 13.631306722319394 5.097856283500231
6548 6548 1 0 6.988482560301976 9.150221568321966 11.549707751139678
6549 6549 1 0 11.439129610081125 3.8821839244913066 9.463350100246094
6550 6550 1 0 6.334633821454981 0.9479083097728449 10.709435569982581
6551 6551 1 0 2.3086569253160247 4.986727979495314 13.160855977884937
6552 6552 1 0 6.07151529508925 13.56512141028942 11.283861485840738
6553 6553 1 0 1.0774749108068484 5.034702194060131 6.5319788800545355
6554 6554 1 0 13.46819140266468 3.236734860364915 0.6494314165657737
6555 6555 1 0 8.598876445785098 0.5855858688794807 3.3399876836970726
6556 6556 1 0 4.882655311074103 8.643857448843713 0.08374642830782672
6557 6557 1 0 5.236794947424209 12.877827528076317 8.943383400350841
6558 6558 1 0 8.609496156882718 7.5813712586326645 12.507115290602043
6559 6559 1 0 12.298471335071099 11.368117156531659 12.751119510194478
6560 6560 1 0 7.398390406651798 5.3955090796843725 9.067773430705413
6561 6561 1 0 2.169433462349233 4.029525614415528 12.727526274629875
6562 6562 1 0 2.6155258212831174 11.573588468863832 5.824032029207287
6563 6563 1 0 9.499753090221832 2.7110729242656975 1.124160721792568
6564 6564 1 0 8.680494875198525 11.536579955983125 13.635882166338293
6565 6565 1 0 1.610866526621641 2.62462437956308 2.6247129541951173
6566 6566 1 0 6.552150839242545 0.04663319150724679 9.736035740290598
6567 6567 1 0 12.258532400478227 11.13125506642837 12.996255281829146
6568 6568 1 0 0.8662789393511073 7.281063655274478 5.731377346231185
6569 6569 1 0 9.243255790471277 8.34802531326253 12.351105027407186
6570 6570 1 0 3.5065715493011416 2.7255787021110036 10.984657573425
6571 6571 1 0 11.186830356327949 0.3078560443906448 9.168968180991556
6572 6572 1 0 0.3411497538734715 6.649626596745342 13.749902630235784
6573 6573 1 0 3.65251957354289 7.088679007931169 8.162168263836948
6574 6574 1 0 8.841800104487504 11.385425593037695 10.578771490644268
6575 6575 1 0 7.286674570782073 3.3071736467206883 11.180557955400982
6576 6576 1 0 3.1488191400423315 11.828481629506127 4.430385724847744
6577 6577 1 0 3.9526959754534334 9.37785360519006 4.447982952497937
6578 6578 1 0 6.167181230035928 0.7634642392962526 1.7183264898468626
6579 6579 1 0 0.8303270056570452 6.75266673635542 12.57551807048606
6580 6580 1 0 11.632599625060474 10.570098248063015 11.199861131661946
6581 6581 1 0 4.3193462423628555 6.875546523893406 10.39133711356317
6582 6582 1 0 4.144530068973235 12.773178370742762 1.8280112878507704
6583 6583 1 0 9.015446231703221 10.671730140133958 2.68335181547294
6584 6584 1 0 9.028843675722856 13.977162084740158 7.323047984247492
6585 6585 1 0 11.572039472936584 1.3091293242748292 8.576229073017378
6586 6586 1 0 12.104521250763163 12.969467341306382 10.984404616816898
6587 6587 1 0 0.29274173766372347 8.046356439526779 9.708152341875296
6588 6588 1 0 6.426801260440822 13.20783612518935 3.7503330974300697
6589 6589 1 0 8.080283471152125 9.74726939999999 12.799772588601565
6590 6590 1 0 4.532012922636185 12.562790746596564 9.01080873564179
6591 6591 1 0 1.2403510905929698 11.604395805346002 7.536390085246497
6592 6592 1 0 10.660359919543993 3.167633811605747 5.596152435347396
6593 6593 1 0 6.210044725824153 0.3222779948915663 3.1588793645854634
6594 6594 1 0 1.2908150166516934 7.705381732888443 0.5782975486432804
6595 6595 1 0 7.0826569169311 13.734411805544598 10.198768960702944
6596 6596 1 0 11.149717449523662 8.995444409528833 10.264864267840592
6597 6597 1 0 10.38330201629513 8.107382678074671 1.3013263250741731
6598 6598 1 0 5.628526373216465 4.822200667479013 1.9207317306249494
6599 6599 1 0 7.187028535941705 7.215367415844061 9.654232269670375
6600 6600 1 0 4.782557468831885 13.92760998338524 10.220192067873372
6601 6601 1 0 2.0732249592458647 10.551476234649192 9.644387683780197
6602 6602 1 0 8.316454454707193 11.282638535614279 6.928008676957997
6603 6603 1 0 8.642994671086042 5.275016893908921 1.7525793320874345
6604 6604 1 0 1.7986156034643117 1.1866642560970388 3.409824497079911
6605 6605 1 0 9.233232062476599 11.929990275272074 0.901617780521324
6606 6606 1 0 7.442234569276898 0.690154396773186 10.449700169261735
6607 6607 1 0 7.4319447607698805 13.734783659353067 0.47641605355413835
6608 6608 1 0 2.7835342865578836 8.47049712774219 10.574731745866337
6609 6609 1 0 3.3069629466187123 12.426279096961013 0.7004855955186227
6610 6610 1 0 2.390544731845112 8.56927727644461 12.19936227398294
6611 6611 1 0 11.189595808882563 7.712625285905063 8.781722407588001
6612 6612 1 0 2.1208714870429004 5.094385830081429 5.315326332236971
6613 6613 1 0 5.309475460068338 6.377493133252066 7.358175945933005
6614 6614 1 0 7.575706217854403 7.912956993392636 13.593962396654774
6615 6615 1 0 13.116911638571104 13.618308523883924 7.86196315250898
6616 6616 1 0 10.402187907881343 10.938522936722462 7.094696117538687
6617 6617 1 0 2.14642103165336 5.29788364069303 7.786922156746284
6618 6618 1 0 1.936144796583255 4.194632142090142 6.354321702845322
6619 6619 1 0 4.098632513280697 0.10584070922444816 5.467166273471903
6620 6620 1 0 11.4522838817097 13.592559688585311 4.477990749511471
6621 6621 1 0 13.4728166710788 11.411873204094539 5.269110060718727
6622 6622 1 0 1.9829711158613739 0.3224438500175332 0.8932053355092435
6623 6623 1 0 11.228460281038693 0.864172777404031 10.020401197624608
6624 6624 1 0 1.0631404993252247 5.80840103462415 8.947020991425344
6625 6625 1 0 8.531663005768475 12.38179477460805 2.4782387592537267
6626 6626 1 0 1.6755680237545982 6.12769311941377 2.502992817280774
6627 6627 1 0 13.722535205960828 12.030577967524158 0.9816065550058174
6628 6628 1 0 0.13107252301119218 0.38261286902746494 7.543923396667665
6629 6629 1 0 10.619443501409982 13.031459328777913 5.529258847207209
6630 6630 1 0 2.6212245149020448 7.851627527537191 0.4981170177733613
6631 6631 1 0 8.295617558428614 3.551568433239497 6.102334753766473
6632 6632 1 0 3.6011611472200307 9.835899650791987 8.282428612599068
6633 6633 1 0 5.674609832109771 11.635056273945661 13.63577265437789
6634 6634 1 0 4.28994046962769 4.7554953578584795 6.587344165001029
6635 6635 1 0 0.4157415935192718 11.17151945930336 1.7418424308607692
6636 6636 1 0 12.867918774247 0.0670325766927691 0.8616304325086602
6637 6637 1 0 9.013267492288948 4.540596196188115 0.020502900648721477
6638 6638 1 0 8.759760211665503 2.7731477635925863 0.7497969480581269
6639 6639 1 0 11.8949401651327 9.719386103914033 12.138447696937048
6640 6640 1 0 9.098071356815842 7.163331217248068 12.291627677961266
6641 6641 1 0 2.1630032193168325 3.386056139917573 1.5513743479205022
6642 6642 1 0 12.270980540202608 0.33431635358121176 9.61393705081064
6643 6643 1 0 12.565585849376806 0.6246481581219597 13.817423678012052
6644 6644 1 0 13.664904527991673 6.830967603504385 0.2116430998642088
6645 6645 1 0 10.701259430305848 3.7049064459812233 2.1871512806053643
6646 6646 1 0 1.2580374907210021 5.3992501607683066 5.972520826644521
6647 6647 1 0 5.578887863519125 1.3033919120430963 0.5761439882584117
6648 6648 1 0 2.207228742314011 8.468777507667694 4.620144048945344
6649 6649 1 0 3.368343103734493 10.333724653260887 6.677776178169466
6650 6650 1 0 6.139763325026966 5.2301513264305095 6.776070463670836
6651 6651 1 0 12.82757247018152 12.130292467218442 6.819557682754148
6652 6652 1 0 1.0494720792056007 5.785398694600016 8.250959405020502
6653 6653 1 0 4.246305729705636 13.27693011558598 10.917555872733123
6654 6654 1 0 11.088555090830033 2.0217387293526734 3.8611079545571028
6655 6655 1 0 12.184317867882429 4.709545656328753 13.250297831009528
6656 6656 1 0 4.590087037043631 7.737907071596548 9.772905795323746
6657 6657 1 0 5.486748352882057 2.3582554190008436 11.006345270071852
6658 6658 1 0 12.655275833293905 13.122859265750405 10.675769666727863
6659 6659 1 0 12.458769323643375 3.6695086388906417 7.448400174165309
6660 6660 1 0 0.3070863643772688 12.647562146185708 0.9089730184203965
6661 6661 1 0 10.552501431253829 4.90794544976978 0.8932463176990403
6662 6662 1 0 7.788868830207737 5.7286834004470695 5.754844506047123
6663 6663 1 0 9.682718656049035 13.087217065838956 7.7096968926800695
6664 6664 1 0 0.2696019316088907 4.116963614608275 6.533477038568947
6665 6665 1 0 3.779984855959485 0.08018572694763164 5.196545871497956
6666 6666 1 0 5.807898354237782 3.0271002912330105 8.324699334381863
6667 6667 1 0 10.219208200660137 5.378917336975793 11.375362436434703
6668 6668 1 0 0.4827710817959982 6.166581070697569 9.173299406364622
6669 6669 1 0 5.465571005943983 10.838665975225073 8.421833996182322
6670 6670 1 0 1.6823043254619314 4.675987659165462 12.922522014602704
6671 6671 1 0 11.558056229781187 10.634287247253077 5.964167804579734
6672 6672 1 0 9.353567194152806 1.6883196989839266 1.3199610417781873
6673 6673 1 0 5.34328335995339 13.037647269345914 2.671147452021092
6674 6674 1 0 1.0653916700984247 0.20620706205082717 12.05676489670224
6675 6675 1 0 9.99556403611199 6.424158558362706 1.0530015936532262
6676 6676 1 0 1.760742536463248 7.1926238427186115 12.037153218648866
6677 6677 1 0 7.682654018634788 5.249789661346772 1.7119546951943692
6678 6678 1 0 5.344566889202438 0.9176759173211063 5.2712928554175615
6679 6679 1 0 13.773622327888454 6.285292375838482 6.360304195198789
6680 6680 1 0 9.842825394374012 2.758760439074324 8.90006677225589
6681 6681 1 0 10.260227698172768 6.793785436088707 11.713495425594871
6682 6682 1 0 9.862469333867095 8.942767233804387 9.576655420308446
6683 6683 1 0 4.897910599098833 8.638071495885935 5.248305516871659
6684 6684 1 0 4.2994175628091895 2.060950714824846 7.2990636509481375
6685 6685 1 0 1.5874082784384895 0.5579218809488095 13.99948458766385
6686 6686 1 0 0.20998639059714896 2.330559107773775 13.136073635041274
6687 6687 1 0 8.621659651401904 5.505083498355499 3.8338873570969887
6688 6688 1 0 9.863321787798748 2.79268101683975 4.2114416360492815
6689 6689 1 0 2.556989300534306 6.490697972821228 1.5347253524492739
6690 6690 1 0 11.490937957391612 9.17978876872747 9.025822066916215
6691 6691 1 0 1.9385725848408213 8.739794639027956 6.0574566606381754
6692 6692 1 0 5.628991596155454 4.728693704751977 13.752270082629293
6693 6693 1 0 4.098701760557622 10.9211272308178 3.0105761955203536
6694 6694 1 0 3.675472089090644 0.49193908527019087 9.759671343206644
6695 6695 1 0 1.5419045742394415 3.2950144047583665 10.195920479864764
6696 6696 1 0 4.821025352159401 13.02409010687564 5.086183302252728
6697 6697 1 0 9.222612160149593 11.060449893721891 10.251555493083375
6698 6698 1 0 13.00340393724838 11.689639167184685 8.418667769587026
6699 6699 1 0 8.178670666861198 3.8050812894519668 4.660358059690792
6700 6700 1 0 3.8216340036516256 4.843923142873292 9.118135030261296
6701 6701 1 0 13.930031549304141 10.608448424719514 3.002371709664857
6702 6702 1 0 7.429021713764075 0.803517144594825 13.934349893900228
6703 6703 1 0 12.390629652012612 9.40341731555004 0.690130914636329
6704 6704 1 0 11.867290766435588 7.2161945474763565 7.174312833451952
6705 6705 1 0 10.099399225827709 8.748510488642767 6.1588793278843506
6706 6706 1 0 9.290943014846 4.686347931793212 11.411429265531572
6707 6707 1 0 7.043832332599367 8.892395741895404 1.9242490005245114
6708 6708 1 0 2.3786533788241733 5.519245027746123 7.797004989435121
6709 6709 1 0 5.638600701611095 10.044606989819329 3.033654328945878
6710 6710 1 0 1.6079009562342608 7.616722150159092 5.379520531742208
6711 6711 1 0 1.0110574957567577 1.4546517090009627 5.26426921170044
6712 6712 1 0 0.8703566627701547 6.946327867959788 8.096970856518562
6713 6713 1 0 9.958276775028041 6.988184151574281 2.9587276442729227
6714 6714 1 0 2.19732585544292 11.742985342157178 6.892059002386656
6715 6715 1 0 7.044902390345747 1.934892405762098 12.34701676157803
6716 6716 1 0 8.570450525448926 12.66445683820711 11.584767647480806
6717 6717 1 0 4.145740315960114 2.728453260881877 1.1232367598780288
6718 6718 1 0 9.570193398725282 7.119422608439186 13.467782767006764
6719 6719 1 0 0.6227667266645625 5.973389384172454 2.1765821326666015
6720 6720 1 0 1.7022696350600603 4.5893694591366385 7.779840477880996
6721 6721 1 0 3.406360989302248 13.085461063086171 6.538868685000159
6722 6722 1 0 12.60750951763188 7.143034857553003 5.64201106896754
6723 6723 1 0 0.8254252505641235 5.33201395708761 1.841944976307255
6724 6724 1 0 4.948391443544331 6.036996737151685 13.34184082594843
6725 6725 1 0 1.8470872227620148 1.2192717989408286 10.447771338150476
6726 6726 1 0 6.553110129181161 1.5456700660697522 2.0898175201433196
6727 6727 1 0 13.525375947198484 1.553742629916211 9.99181768596412
6728 6728 1 0 0.7479086602700679 5.945547673494566 10.800660271145384
6729 6729 1 0 5.788509388136843 8.316230714772223 9.431805858355311
6730 6730 1 0 5.080047275288047 5.72387955801264 2.311986660423135
6731 6731 1 0 8.843199263754748 3.193577249235193 6.1598396733447185
6732 6732 1 0 7.790167008908366 12.156865373395506 6.884578671131891
6733 6733 1 0 4.71551073454026 2.037018873159939 12.199527738641816
6734 6734 1 0 2.7243268939165093 2.3259503015523415 7.289356507459854
6735 6735 1 0 5.648760606166593 10.889706954540321 5.444978918535518
6736 6736 1 0 12.17166656272033 2.553807306109603 7.587048357956807
6737 6737 1 0 1.7398710821250045 13.335292298872094 7.515316255635829
6738 6738 1 0 11.168447314423407 2.3262751447592915 4.808713726256128
6739 6739 1 0 10.434334352376403 1.131271124488746 5.306469564410695
6740 6740 1 0 0.8702351637441028 1.6727534252775778 3.939652530850516
6741 6741 1 0 7.787304498308106 13.622955489270982 8.133869865461028
6742 6742 1 0 4.5317647656576465 12.32639375641003 10.153889072232596
6743 6743 1 0 10.81248502174757 1.9919112372057493 11.347968616921019
6744 6744 1 0 0.1747220099548664 0.9761818732706078 8.137374995086077
6745 6745 1 0 4.911122639814512 12.618676551971534 2.756000501573638
6746 6746 1 0 12.592060627210754 11.22382712165724 12.000920252983455
6747 6747 1 0 1.5425307439396267 3.8115050982127676 8.628909404074669
6748 6748 1 0 11.701042907002746 10.378731240160997 5.325706752970309
6749 6749 1 0 4.188612070401399 8.729112368587275 12.672918317243688
6750 6750 1 0 2.3347954712424404 11.437992950946656 3.6061359982872907
6751 6751 1 0 7.5313496702271685 0.1309146224264891 6.429445126915974
6752 6752 1 0 1.2385183200261436 2.969335199964274 3.981350949461001
6753 6753 1 0 7.917911585002445 6.010474331891411 4.478377728921673
6754 6754 1 0 2.747852714110422 4.442532782467201 7.014395298919871
6755 6755 1 0 12.897284011539067 1.4008867106927687 5.355896296446879
6756 6756 1 0 4.670647234031189 11.659902795298134 13.237965486545681
6757 6757 1 0 0.11554491288333309 5.626225505731159 6.910345603238098
6758 6758 1 0 1.6464472600623834 8.373420796431486 9.808654075085997
6759 6759 1 0 6.271370916682003 5.1068907449426915 11.643476801725065
6760 6760 1 0 1.7266237738705217 11.549856239157776 5.553762910898393
6761 6761 1 0 5.601509482103176 5.859402593710266 3.0808915032174595
6762 6762 1 0 2.0959442321701256 12.786030133108971 3.4627728554361266
6763 6763 1 0 13.02153085396713 13.95562635877211 12.369697503205801
6764 6764 1 0 6.256265137997694 3.2506816093789017 2.987281346285145
6765 6765 1 0 9.137534603165161 8.508058331365751 5.018517587797264
6766 6766 1 0 6.288142518139085 6.951315137486278 1.6470641747701171
6767 6767 1 0 13.268317167733763 6.603218631786569 3.803494014416887
6768 6768 1 0 3.467285938064248 13.25848960706934 11.080722739799688
6769 6769 1 0 10.627334406686256 7.332401154501286 10.418609791499717
6770 6770 1 0 9.988631209596948 13.889244267177046 3.283589363010112
6771 6771 1 0 0.28120466075005723 10.933386255069616 7.57297672070737
6772 6772 1 0 10.426306226662824 5.593624985316707 3.510031873578948
6773 6773 1 0 4.62179138763066 3.5041233701514205 11.186471447596988
6774 6774 1 0 7.397340813843547 11.619405871176845 4.113698805977496
6775 6775 1 0 1.1700838797049136 2.797686240388555 7.982758308732749
6776 6776 1 0 2.7920095691248816 13.121718781661803 5.732946378101755
6777 6777 1 0 0.6405326666790162 9.764999495615127 1.5313449460120037
6778 6778 1 0 4.207770798291342 3.7885701877636784 12.70813824203741
6779 6779 1 0 3.3190312568156175 0.5327948659376129 2.3858584794048716
6780 6780 1 0 0.6087188309597438 2.0332847636471403 3.067422126784972
6781 6781 1 0 10.625878348554593 7.957531989389525 6.6018631486870625
6782 6782 1 0 0.43494425230215933 1.3838325184550462 9.950804314462275
6783 6783 1 0 7.697552477812045 10.409046413775478 2.096435849937977
6784 6784 1 0 0.9474650346760225 0.3958977276853971 9.095633088281803
6785 6785 1 0 9.405117437935184 8.647804032395737 5.605637858171819
6786 6786 1 0 5.642910404702302 9.795822202228711 10.41712409967365
6787 6787 1 0 7.276858286613681 13.990777706468348 13.422257175577307
6788 6788 1 0 13.05607019416103 4.165850912784625 6.208966696795198
6789 6789 1 0 6.60988632478632 10.035137275156384 12.414018470995176
6790 6790 1 0 12.361685485965051 8.211579923237888 10.73689177341917
6791 6791 1 0 11.183161149118325 3.3698537445937284 8.142606414031194
6792 6792 1 0 9.23756765888298 2.3433710821282867 5.190524543190707
6793 6793 1 0 11.218468134349097 1.5060069688194717 10.238971017518692
6794 6794 1 0 8.781539862161447 8.418578665411562 12.819395257364656
6795 6795 1 0 2.715839176273631 2.832549649701229 12.538184175430086
6796 6796 1 0 12.15570971052879 4.04271235456228 6.482607673972809
6797 6797 1 0 7.8768849849730405 7.481159221910961 3.361533087114445
6798 6798 1 0 1.4371640011749072 3.995868908639989 1.790064973341362
6799 6799 1 0 5.918716730550076 8.886885507162463 10.546051252956097
6800 6800 1 0 10.776131614661763 0.43449424017239413 12.65300275478159
6801 6801 1 0 6.965381790653808 6.40995577274052 12.84644226707676
6802 6802 1 0 1.6074580126032074 11.759168821699049 12.494063008497797
6803 6803 1 0 2.1310781571261046 11.13132897167737 10.285907114190488
6804 6804 1 0 1.519530319871459 6.197342979854041 1.2978505697007907
6805 6805 1 0 12.32699462201228 4.745164683897709 7.462286021218245
6806 6806 1 0 8.897795724348233 14.018820051950033 13.034595288617696
6807 6807 1 0 4.477608582173637 3.5649602372495046 2.4868986629829144
6808 6808 1 0 12.25159521149934 13.621370313687743 2.859624638461927
6809 6809 1 0 0.765569935900706 1.1127935207042554 10.164835307147934
6810 6810 1 0 4.990737288141869 1.5797469700077849 1.8672028783099295
6811 6811 1 0 13.697491784078176 8.661362027848542 12.528841074726113
6812 6812 1 0 4.2019394061373605 11.715609412043781 9.263693786248616
6813 6813 1 0 13.34223769651546 9.124024738157956 2.2669444254435387
6814 6814 1 0 10.60368203684231 11.733277593299393 11.958032476360948
6815 6815 1 0 11.082658186610805 1.771537276373679 11.038500928915859
6816 6816 1 0 13.039291864213222 0.7226996390409681 6.418001965924681
6817 6817 1 0 7.902333053417834 4.351528550784187 0.6288844133283124
6818 6818 1 0 2.142082305393279 2.9196344298745864 7.765871276736604
6819 6819 1 0 1.370174603118841 10.023599253763164 11.55029218131704
6820 6820 1 0 10.653249824707197 7.047368838232167 1.514441989193126
6821 6821 1 0 1.3174010022143074 10.816369223539246 0.2738134482580865
6822 6822 1 0 13.560255020792843 0.6230704140848041 14.023841025786101
6823 6823 1 0 8.385486634897022 11.645770966204804 1.7372561214203859
6824 6824 1 0 10.7244100396918 13.317201842248142 6.668974505756117
6825 6825 1 0 13.343662456550838 1.6463769964545119 7.263590987369905
6826 6826 1 0 9.487224821028361 10.683658923606362 11.328628328240544
6827 6827 1 0 4.359720778746895 10.266982127460883 13.345787021647208
6828 6828 1 0 6.870526690423097 0.35764518333322987 7.546475153717028
6829 6829 1 0 12.710768619260662 7.067631014838646 1.3167429226728098
6830 6830 1 0 5.195160595408542 11.508755573840217 3.339170349615098
6831 6831 1 0 7.634505881764495 1.400008844306037 4.996403163547247
6832 6832 1 0 4.416202638469342 3.129087238018587 3.2782006427210653
6833 6833 1 0 2.564082635915763 4.3851208090589475 4.610706546175318
6834 6834 1 0 13.821533117905172 6.549528181642377 1.705147833435785
6835 6835 1 0 6.161447242978025 6.040742837859998 8.683057156912362
6836 6836 1 0 9.151019745715669 9.82728965094794 0.31940841624509764
6837 6837 1 0 10.128754415552034 9.023012195234559 2.8219555431042505
6838 6838 1 0 6.002096881921951 13.694615566749123 8.639638529711995
6839 6839 1 0 6.192374771989195 6.114247828165697 9.069845695922819
6840 6840 1 0 12.090666305136851 12.109240632460114 5.251972524998639
6841 6841 1 0 4.521772432568734 4.09494820215166 9.271950480814636
6842 6842 1 0 1.0695352418330393 11.95934190036764 1.3442838152617416
6843 6843 1 0 10.075442418583862 5.997732445106085 7.963998135819291
6844 6844 1 0 13.336564193231792 5.349219110377972 9.722146102963924
6845 6845 1 0 13.410756667305542 5.949425326180606 0.30955184307619993
6846 6846 1 0 2.776190933194708 3.4849156627202014 3.304764520957071
6847 6847 1 0 4.183085370054881 3.2537999978406322 13.093377371482045
6848 6848 1 0 8.986906868195424 10.56656164490599 13.793966022947751
6849 6849 1 0 11.463371424171095 4.4105747723966635 0.09794813633310193
6850 6850 1 0 2.650100119242684 8.529208409289213 5.840192489639078
6851 6851 1 0 3.458146004958885 13.138922600467858 6.348002802319307
6852 6852 1 0 12.580176380497322 11.606918699169563 12.97564300821785
6853 6853 1 0 1.0816753705325037 7.435720548739259 11.376704331248591
6854 6854 1 0 10.597967838261782 9.882105700640144 5.557163318682872
6855 6855 1 0 1.6106739725270889 9.409838148097771 12.261692524265703
6856 6856 1 0 13.234415840814401 12.54606996506004 6.192492144929753
6857 6857 1 0 0.384711884675324 1.5774692160806103 3.9782898129457527
6858 6858 1 0 5.385709151367006 12.216342322248288 7.999405595952208
6859 6859 1 0 12.806439688867346 2.3287076707993086 9.922001577183822
6860 6860 1 0 6.208745516989472 2.0556746518560223 4.997321238795042
6861 6861 1 0 9.544184213277248 2.458181614814797 2.705269742564046
6862 6862 1 0 8.123326099192893 1.0952799181555766 3.617560290477001
6863 6863 1 0 9.693666042158588 10.179106667481474 7.6671931800032285
6864 6864 1 0 8.04894608936023 3.1460240582517573 6.735359001010497
6865 6865 1 0 5.854421501730352 10.785926207498298 11.495388122102826
6866 6866 1 0 5.325702968895775 2.547238967049867 3.3769094942131495
6867 6867 1 0 3.3847663843756157 5.299759144333234 4.142874849515395
6868 6868 1 0 13.75247392944638 7.547237899303363 0.2557066617848696
6869 6869 1 0 6.678383461487932 7.607690284192707 11.920111174687408
6870 6870 1 0 11.832078256784119 5.376858780767564 0.8176534192241414
6871 6871 1 0 5.186334753455619 6.543870513574779 12.019541479373643
6872 6872 1 0 1.7303985831589002 11.66262034957729 2.0194350334836253
6873 6873 1 0 7.562689577577994 11.722369491529191 6.949001531413642
6874 6874 1 0 4.328306103385447 1.2677896212879318 10.032274807223803
6875 6875 1 0 8.129676041120687 4.333229717473438 7.587058963041654
6876 6876 1 0 3.0053224566182783 6.854441155954771 6.125757334777911
6877 6877 1 0 13.175867530772939 7.531726400554035 2.1140740396832753
6878 6878 1 0 10.373661517691874 9.215800952614089 4.43731175092061
6879 6879 1 0 4.992402589675293 9.25162709884647 13.931843190204145
6880 6880 1 0 5.604388710603117 7.556531074168702 0.5952660624517416
6881 6881 1 0 13.945850180870353 13.870785276152176 9.902182037419204
6882 6882 1 0 3.8431728017639797 0.17768294316280336 6.726937273865542
6883 6883 1 0 12.940829167972694 5.968268987580662 3.6920064250168614
6884 6884 1 0 9.640761041222705 5.654425725148933 2.219882265898862
6885 6885 1 0 7.0743048675236535 10.35084427088965 10.869509182693983
6886 6886 1 0 10.365350649398733 8.62106712876315 4.3059796551498195
6887 6887 1 0 7.301319004606189 9.340260948645538 6.3509080948775205
6888 6888 1 0 12.825167357555879 4.703717827931188 12.341619115467529
6889 6889 1 0 7.82618983429581 1.9281284842846915 9.555310748404896
6890 6890 1 0 6.967619547203499 14.064486905665825 10.416490060482717
6891 6891 1 0 5.861163093068167 4.813757002525117 4.686391270869536
6892 6892 1 0 7.3630874067022285 11.998685400503524 6.51140218999606
6893 6893 1 0 5.675663057461397 2.576459943087617 11.375193095872543
6894 6894 1 0 11.611647865147429 7.347776227169225 12.805827256431368
6895 6895 1 0 6.2801042298783445 3.837114028316445 3.37244468091783
6896 6896 1 0 12.815881972930573 4.658827075773526 3.613334323906839
6897 6897 1 0 5.526352415533225 9.05106673866728 9.638298124164999
6898 6898 1 0 2.260078217499361 7.511988098894343 3.172496097550478
6899 6899 1 0 0.717454787387261 13.437293670220349 5.785972661757449
6900 6900 1 0 5.910304557674998 10.415762228697663 12.639216031274795
6901 6901 1 0 7.74321549775198 5.973947909754377 6.3918382903155475
6902 6902 1 0 5.538740302753104 4.598475818541469 0.6300698988988939
6903 6903 1 0 8.058869263079972 13.50760731223693 13.80524494129833
6904 6904 1 0 12.620283791934863 10.838573846755823 12.3705847562164
6905 6905 1 0 4.304133516160289 9.509787329219133 1.5297517711547413
6906 6906 1 0 5.880571962859035 10.226750782905546 12.666691789172063
6907 6907 1 0 14.000800676196206 8.290324221520706 9.544563677138944
6908 6908 1 0 8.546980021376452 10.134416151333483 3.2753753428903774
6909 6909 1 0 3.1716547536049533 8.268153417824575 2.7059401178324634
6910 6910 1 0 7.299919497739654 3.4174880633840505 4.764324707479362
6911 6911 1 0 4.83610174693287 9.757212659870667 0.8735443785882572
6912 6912 1 0 5.255913444153384 2.7033104797605096 6.461477671386375
6913 6913 1 0 6.991403108485068 13.323092163465704 7.729314717394036
6914 6914 1 0 2.6711687850243475 7.581905589698864 11.93750188783419
6915 6915 1 0 12.008501781561197 8.666434319521127 12.941691162232466
6916 6916 1 0 8.97161122482359 10.388197028435084 2.323533023027651
6917 6917 1 0 4.344817387176865 3.7664542449764165 12.259487226886135
6918 6918 1 0 7.865409366991629 11.836379362767056 8.319951383756282
6919 6919 1 0 11.748783069974445 0.06555931281070053 5.534260098389247
6920 6920 1 0 12.378216379711315 13.17347497355735 10.96397739967959
6921 6921 1 0 4.372933639652624 3.9642810053447533 6.025680606460621
6922 6922 1 0 12.43587980620923 10.24421508175327 6.902999082514866
6923 6923 1 0 0.8586812402279379 13.492463614478186 2.142545349997178
6924 6924 1 0 8.445086560376591 4.3185078026899975 13.412365903118278
6925 6925 1 0 7.877232993904242 0.8698293959210465 12.887898999844218
6926 6926 1 0 4.453221371508477 2.2240956294813192 6.558806698657085
6927 6927 1 0 12.361684255878238 8.322071464850147 1.8673222977161639
6928 6928 1 0 4.830530310555964 10.509443195931091 3.1030409964517087
6929 6929 1 0 12.720298167159944 2.543207647218613 2.315656574054833
6930 6930 1 0 8.939642451227874 3.2414945007047615 7.586133254022231
6931 6931 1 0 0.7316671438809256 7.296399426331559 13.250423237450635
6932 6932 1 0 6.286673843166564 13.745972624586168 5.1863152624344515
6933 6933 1 0 2.955068031417532 3.452898682687931 13.232119710239266
6934 6934 1 0 2.7962654414973396 6.2650119615813304 7.899405314390032
6935 6935 1 0 7.381163979754342 5.080307027149463 1.4814543257046646
6936 6936 1 0 8.634942027983232 10.189871317970974 3.6116258658673828
6937 6937 1 0 2.326671399904011 6.021302923411772 0.8457560594573155
6938 6938 1 0 3.9250803042631692 7.451571080331586 2.132081836544818
6939 6939 1 0 11.969526912584946 3.1092909962453237 4.229242330365666
6940 6940 1 0 7.224593670158358 4.64737706871812 0.9749340955708452
6941 6941 1 0 2.38037707274834 7.885236216695918 2.9932624146100792
6942 6942 1 0 4.055213501442097 13.53243156248906 7.965428803839565
6943 6943 1 0 7.317697112443925 10.25984523413418 1.7950245948696808
6944 6944 1 0 13.049129132827918 2.533442402718953 3.782329085283417
6945 6945 1 0 2.4069583754743524 6.132685748909967 3.153983356923104
6946 6946 1 0 2.9327342821428655 2.8908754680418345 10.63288980303944
6947 6947 1 0 11.18169312759769 5.78749194496095 4.879723180800628
6948 6948 1 0 11.317121644453792 6.9820258394209835 10.11597709740957
6949 6949 1 0 9.6275841508374 3.4860825969972358 6.487535305225564
6950 6950 1 0 10.063617730767787 11.356796995833575 5.622152598656247
6951 6951 1 0 3.7547196038861674 7.866999889568386 6.357932614762797
6952 6952 1 0 13.133616274204867 11.736706743009684 12.05814661093174
6953 6953 1 0 8.828238000154105 2.0279502845771957 2.4403456897107336
6954 6954 1 0 13.595866937077835 6.5730310330179575 6.144899544393001
6955 6955 1 0 3.5755797842776524 1.773343856191617 4.444320048526038
6956 6956 1 0 7.384900166149599 9.315345874606834 7.248394513482177
6957 6957 1 0 8.195374442164288 0.6443790292087107 6.02006743630242
6958 6958 1 0 2.7873829460725355 6.667028256927724 2.9383545709649965
6959 6959 1 0 12.352207404415662 5.549656326129258 4.222854302507906
6960 6960 1 0 4.279720712940987 11.858509471814926 1.9531179998536388
6961 6961 1 0 3.015065747329951 0.34934471435642106 6.389523186971088
6962 6962 1 0 12.953834950888469 0.07209545639842392 1.3421694055495033
6963 6963 1 0 7.9517114403512865 11.021191260440089 13.748047814898166
6964 6964 1 0 12.443097939823291 4.565492223005114 7.72473276391644
6965 6965 1 0 13.525268344599803 9.053638971762059 4.041708020648123
6966 6966 1 0 11.400038268460849 9.96227513988441 3.8613746493224324
6967 6967 1 0 12.804474228785221 9.433010544829063 13.912648115667269
6968 6968 1 0 13.167046628016822 10.530865857060844 4.026442247490614
6969 6969 1 0 7.710807421417355 4.569617132569549 3.3973562846414
6970 6970 1 0 4.305199213502319 1.1987310681012098 8.378962931114527
6971 6971 1 0 3.6901772455780724 2.8863907792516597 11.005891732157538
6972 6972 1 0 8.91363342264038 8.448236708641609 13.82809524117137
6973 6973 1 0 0.16881048401489882 6.440318096091325 13.297074240660004
6974 6974 1 0 1.492311796808678 2.537756217339527 8.657155914585344
6975 6975 1 0 7.919024147275229 5.271450202361609 5.81860586079709
6976 6976 1 0 8.952293110386332 9.503348660609932 13.685052530561041
6977 6977 1 0 4.563215377722569 7.262183777703522 13.08111808066244
6978 6978 1 0 7.511625656287803 7.175300394298768 10.956011348468701
6979 6979 1 0 7.257145614174454 9.46540604666306 6.265774002980309
6980 6980 1 0 7.970061394594102 5.463596376342553 13.631843429726732
6981 6981 1 0 12.34622589346317 9.918111928600021 2.2208550426646028
6982 6982 1 0 9.875460905968774 2.4503586102619326 1.405212852439169
6983 6983 1 0 4.448463671965247 0.6851778069813234 13.647384648980339
6984 6984 1 0 5.301103324116353 13.674867113190926 6.376198490736213
6985 6985 1 0 7.8140868295470955 7.115815670708168 3.0767222299919346
6986 6986 1 0 7.128671174021734 4.872640647252118 2.479086565780144
6987 6987 1 0 9.244752337777099 11.67614277798469 13.608908803455018
6988 6988 1 0 4.284972549794093 8.889036886306112 12.537495329784067
6989 6989 1 0 1.6462007941331362 3.6213223995890664 3.0790484832765883
6990 6990 1 0 3.8584951415748856 5.109019090622754 8.113240809952508
6991 6991 1 0 9.934347881276713 3.3631032140950996 5.311270138238707
6992 6992 1 0 8.692431602764394 9.882891706949556 1.594211563915596
6993 6993 1 0 12.257360541838393 2.955849414731954 10.994612926766127
6994 6994 1 0 8.755640180727518 10.774083592761393 9.491824171937758
6995 6995 1 0 0.23630835532773992 8.869363560023327 3.062604415065947
6996 6996 1 0 5.315466222493147 0.2400322112102809 12.795012332594712
6997 6997 1 0 3.149541994729722 6.625033666606849 8.611649967648065
6998 6998 1 0 6.278005709075089 9.486808493194362 10.658063425822757
6999 6999 1 0 6.8367661393014005 9.471242247802484 11.963612922944629
7000 7000 1 0 13.975629308911929 6.244335597355819 12.967159540514112
7001 7001 1 0 7.9886443338533715 6.220551945269216 10.514081548149917
7002 7002 1 0 11.095741873566284 2.6422106223523745 0.9317395061101708
7003 7003 1 0 5.067880975624359 6.7844729939534645 9.061218379403076
7004 7004 1 0 12.586566809034945 4.20989847503986 5.624715410721884
7005 7005 1 0 2.856207850957108 3.1234980769042213 7.050121817703079
7006 7006 1 0 5.207634965699228 8.470446590267242 4.288538524624671
7007 7007 1 0 10.896039352337567 9.336099728349032 4.38648956785113
7008 7008 1 0 7.466000811394619 9.6794235269304 9.166468181958887
7009 7009 1 0 8.062263095559139 11.620088233566076 12.972059843857036
7010 7010 1 0 8.284489346418836 5.039962540223339 6.715710129916817
7011 7011 1 0 0.41978100646416683 8.912455398997043 13.002460876988946
7012 7012 1 0 2.6846949480685525 4.320319752174233 9.724304350355197
7013 7013 1 0 0.5751637921406091 5.191952948040815 3.574351833338086
7014 7014 1 0 1.6574913519088834 3.602378581591457 11.02833771593683
7015 7015 1 0 6.908316845818151 2.951836891336841 11.170031360551587
7016 7016 1 0 8.812499615128921 6.845202752615318 1.5559761684155422
7017 7017 1 0 8.716026674946425 13.64465540956633 13.396656636222273
7018 7018 1 0 8.022526879788902 5.274932691226318 1.0398639590775114
7019 7019 1 0 1.503202867177868 5.628037494624066 8.94578281404444
7020 7020 1 0 0.07572261714917429 8.376456694218403 9.357357559622711
7021 7021 1 0 6.434637387733488 2.3210806138363016 5.814863781464196
7022 7022 1 0 3.6322430443587925 1.3589127971950778 10.813705126682313
7023 7023 1 0 13.007511407008169 0.10473743192959337 11.80506850591654
7024 7024 1 0 0.5813367503233084 6.401068265619494 4.133185589431094
7025 7025 1 0 10.59053054682524 12.744430097653211 10.390902567439737
7026 7026 1 0 6.905152504977993 6.522272113554856 7.963687050041712
7027 7027 1 0 1.6561173868434835 1.3874241138246126 6.011468200963525
7028 7028 1 0 1.7231394882796693 10.424237298328734 8.58587948654296
7029 7029 1 0 11.455598518062834 7.386899540450873 3.2534947185278518
7030 7030 1 0 13.19400196356949 8.313314419679168 11.625199588157303
7031 7031 1 0 12.159681050402801 13.684109444440121 10.021367445744705
7032 7032 1 0 6.789506667039883 8.218612033567867 3.5492907606772386
7033 7033 1 0 1.0384653444320475 12.126289453476492 13.188943833801968
7034 7034 1 0 0.16482687480561967 9.294149742938222 10.665233616461599
7035 7035 1 0 12.802325984046554 6.7467277173602955 8.501758352251851
7036 7036 1 0 8.313420320811591 8.119739590609688 0.4177448422094523
7037 7037 1 0 3.5028236372430728 7.398461937005741 8.3484184904225
7038 7038 1 0 3.0454042332891573 0.7481053692473979 0.31410690113324236
7039 7039 1 0 1.3060815968721198 3.845963991687578 7.693690832713589
7040 7040 1 0 7.800657851129304 13.520426503996884 9.222664856186947
7041 7041 1 0 6.111391499290781 11.138894745777991 2.3020683368042563
7042 7042 1 0 7.3417117303993695 6.091114081328532 8.767301565720611
7043 7043 1 0 5.649279636812775 3.02939840456716 12.902877263380176
7044 7044 1 0 8.19638510553752 12.607399500497706 5.248388203791034
7045 7045 1 0 2.689522323691287 6.031631753362807 2.064610816360605
7046 7046 1 0 11.111418378724085 14.033786173283135 3.5634548229783527
7047 7047 1 0 8.516700805547268 11.72653572426289 9.064738382470464
7048 7048 1 0 12.484871794061824 2.1043911091452876 10.5449358649256
7049 7049 1 0 9.664867977779501 12.553795585030967 2.9087674928938925
7050 7050 1 0 10.013336068413576 8.792278675072465 1.2083744779001502
7051 7051 1 0 12.027946990453161 13.92784420847551 13.061318157239652
7052 7052 1 0 0.15559253371509546 6.369835189251982 11.195904768950586
7053 7053 1 0 2.631386547124291 7.641499305243858 1.872204655407668
7054 7054 1 0 5.848103214331907 8.142166346214522 6.595162157918945
7055 7055 1 0 1.0033870849950934 2.206301627213074 12.159130529752304
7056 7056 1 0 4.743944324312553 5.677494651611972 4.538429243474858
7057 7057 1 0 12.154230762001065 0.7970256356009161 7.853135171798824
7058 7058 1 0 11.525577471421402 3.878641794246265 8.12546791180973
7059 7059 1 0 7.782864357320997 11.166155717803536 5.549046880442833
7060 7060 1 0 13.784577060101261 10.863663088876885 4.989992158054183
7061 7061 1 0 5.087904097683624 13.443769078999699 3.6014148348782324
7062 7062 1 0 0.12151597461649088 2.011328995766184 9.208120943975334
7063 7063 1 0 1.7104276495567394 0.16978353833424709 2.991834322498323
7064 7064 1 0 4.618892916011243 7.544135129668738 9.017909391920611
7065 7065 1 0 7.121646892717397 9.321561563394255 6.898539788261452
7066 7066 1 0 6.252735346940023 13.130135412014534 7.717532108895564
7067 7067 1 0 12.68312355217056 13.10564556730979 11.099327601254872
7068 7068 1 0 13.54159193470636 9.110990643039845 0.5367679044398461
7069 7069 1 0 13.224064630774478 9.48705234455451 12.992593927019591
7070 7070 1 0 1.9568351509861521 4.585532073283242 9.125828453636892
7071 7071 1 0 2.867688164585597 0.4479173967362524 5.998318447287081
7072 7072 1 0 8.949153974741247 3.5134303874085986 7.457947348354941
7073 7073 1 0 10.633710642027873 5.530414478442404 10.390805296597117
7074 7074 1 0 0.9894346744900874 2.3112674050600743 11.797208270982933
7075 7075 1 0 1.9305524663519409 4.033971700047383 9.96550764463518
7076 7076 1 0 4.615813851076314 2.445446683795105 0.40394909275742774
7077 7077 1 0 1.9621153788734895 7.323803463113855 10.162412766921362
7078 7078 1 0 11.055809551926052 6.840268371884938 4.847154932682541
7079 7079 1 0 4.355913869953088 2.3111418391226124 0.5716585058263197
7080 7080 1 0 0.20344452162528942 2.125951710704308 10.276717529821482
7081 7081 1 0 2.1246847522895185 3.662002717897174 0.1763037816173126
7082 7082 1 0 6.86125377602391 9.440392552005152 13.519484382639787
7083 7083 1 0 2.9041033496715754 7.889041556491011 5.38086215413205
7084 7084 1 0 0.45571366796668356 7.612941740029804 5.892197230425297
7085 7085 1 0 3.280230842633945 5.642464435837672 8.327229730005465
7086 7086 1 0 4.688659118639299 6.122640198712483 9.684352659048184
7087 7087 1 0 9.697104649396358 9.641106958723496 5.359544591820369
7088 7088 1 0 12.510157950040913 10.248347227118813 8.65388634213879
7089 7089 1 0 3.357127604297991 4.06687720094521 14.030521542122466
7090 7090 1 0 13.381675657881042 0.7165661771577737 1.4710049636776994
7091 7091 1 0 0.15383011825155488 10.212543578335449 4.2941857762131255
7092 7092 1 0 6.5644336281466815 3.37315295030925 5.26158411146382
7093 7093 1 0 13.336571157802375 9.8259992816414 9.951003741293098
7094 7094 1 0 2.4788807479701807 8.527408538267737 7.641984633159978
7095 7095 1 0 5.861877091712568 3.0964666257116416 0.6955115962552878
7096 7096 1 0 2.019535398599567 1.3954021069976148 5.587496656712277
7097 7097 1 0 4.844510334502997 12.093948896318857 2.858630136300219
7098 7098 1 0 1.2743560509028997 6.381630788660055 12.910495022629693
7099 7099 1 0 13.959623115435969 10.903905143587094 12.542399929535858
7100 7100 1 0 0.9272163645342709 6.55038740530784 0.9035113742139439
7101 7101 1 0 1.2391943426539174 3.0739735765702614 11.788457250057004
7102 7102 1 0 4.006358397714696 13.28334275793021 10.700542027392283
7103 7103 1 0 10.95825965746337 4.769396001915527 13.212163905695833
7104 7104 1 0 0.4798386657318678 5.17217996203308 13.44622903206184
7105 7105 1 0 9.70480271448988 5.097474551614424 12.962170936503078
7106 7106 1 0 8.52292139080029 10.341175614339164 3.6205676782515965
7107 7107 1 0 13.825766124611894 10.635322276875767 9.777407164541799
7108 7108 1 0 9.766811802442733 6.368434495799094 12.534233897775518
7109 7109 1 0 10.733680595512002 7.0576985366789335 2.9317044276125643
7110 7110 1 0 6.662763761225556 9.158743380249838 0.09393182260811365
7111 7111 1 0 5.142982275525626 2.4105895991194792 1.6455802402174693
7112 7112 1 0 6.582390652815593 3.832949186031318 10.677843400759963
7113 7113 1 0 3.44957649087862 12.260535912337309 2.3147806046229964
7114 7114 1 0 1.0206367288691702 11.615964680222547 0.474846239015661
7115 7115 1 0 2.0624648783975363 12.090311171021229 7.8120061241196765
7116 7116 1 0 11.28182012277972 2.096583475704256 3.097255234434388
7117 7117 1 0 0.021092187755724568 10.44533180802798 7.017869132191633
7118 7118 1 0 13.180080608597802 1.5510280404982058 9.228211154971447
7119 7119 1 0 11.086456711585083 4.6013487117733884 8.19438240352043
7120 7120 1 0 1.8018658002021226 10.190379715575858 4.943389266294351
7121 7121 1 0 12.82154211264951 7.125829907730868 11.002043449357146
7122 7122 1 0 7.313292159714094 4.095915863890175 1.5682312903363589
7123 7123 1 0 6.709782304933344 8.921326440782984 7.227246832601891
7124 7124 1 0 0.032202652511200025 8.589655501075658 13.405041202919534
7125 7125 1 0 1.954238857060116 3.046921747653017 6.396821661468496
7126 7126 1 0 4.2161359716306706 1.0231529003475863 13.264872572700565
7127 7127 1 0 11.372735776990623 2.564281852154351 12.378297320024325
7128 7128 1 0 11.633928357123718 0.8396320322534614 9.703287289885441
7129 7129 1 0 13.734552963124576 7.03196601604974 4.4562046865772915
7130 7130 1 0 11.462770462915525 10.497934236595892 7.902870021021682
7131 7131 1 0 7.953469592001202 12.020223480232758 4.206171263046406
7132 7132 1 0 10.821818513990564 0.19487703254000913 10.097329594283641
7133 7133 1 0 5.091376048018988 11.952498820794089 12.514705521257257
7134 7134 1 0 5.827901597587002 9.547764541870588 11.716515168460676
7135 7135 1 0 6.927112017401964 10.936894422778886 10.338880349805459
7136 7136 1 0 5.578606253030362 0.4946891582963748 2.0233061394347245
7137 7137 1 0 5.407398069295758 3.1471290382971953 6.139086557143352
7138 7138 1 0 6.042461351590422 8.503227376333385 6.254047286467071
7139 7139 1 0 3.265069983567625 2.224637876904741 9.46892766660629
7140 7140 1 0 0.6464434106067853 9.149456939471659 11.306761151930775
7141 7141 1 0 12.827325642669976 10.64935315816763 9.879490360044334
7142 7142 1 0 6.850165191779292 10.79010975754384 3.075710188781245
7143 7143 1 0 3.03926707215818 8.074597822317864 2.89717710464149
7144 7144 1 0 2.7338016695802287 6.9844985408898825 8.256851714155864
7145 7145 1 0 6.654257204447805 12.735362514872866 8.365173133261582
7146 7146 1 0 1.9707926026124605 2.6929946288713453 11.454002881828874
7147 7147 1 0 7.259938915592448 10.544997880417599 8.832112549783965
7148 7148 1 0 3.1176027946825746 12.682120284750342 11.413849548219105
7149 7149 1 0 13.993958377067882 7.750994246160246 12.847956210306101
7150 7150 1 0 7.415276016419572 5.014675330697528 0.6861041992922341
7151 7151 1 0 11.383131792975748 3.0768385810126513 4.005978175795443
7152 7152 1 0 13.066826487054442 11.312106566313352 5.897371662892886
7153 7153 1 0 3.6440889070231095 0.6614484758210198 12.07553592912725
7154 7154 1 0 4.394657321846293 5.243381773820778 9.415587668711664
7155 7155 1 0 10.705220330995214 10.220681126355112 3.478121041796208
7156 7156 1 0 7.889842941246534 13.255319708417202 0.646031382642733
7157 7157 1 0 5.076203892859066 13.643231038852113 3.7455165156823744
7158 7158 1 0 7.833080663241203 13.317389945793991 3.477064517839889
7159 7159 1 0 0.9641785828764856 3.410314265803402 3.7855650881143217
7160 7160 1 0 4.0091294816903424 11.675108829510457 13.957497576616142
7161 7161 1 0 2.7070816434827902 10.991629851281074 11.316921354062213
7162 7162 1 0 6.419523979209205 2.254105546046409 6.013264126010068
7163 7163 1 0 5.248542217504773 0.289466738614589 6.616515202854941
7164 7164 1 0 4.711828010664149 11.881378523318183 10.79141347286709
7165 7165 1 0 3.8852363529577456 8.47926182585923 10.682042456101033
7166 7166 1 0 5.843901614264285 3.571576735153125 1.040492648813463
7167 7167 1 0 3.439942719726135 9.139319481192686 8.550755651476013
7168 7168 1 0 4.157805562403467 12.557166955437058 3.677529946048176
7169 7169 1 0 5.3072174999613155 11.26134564118913 11.286638181171675
7170 7170 1 0 12.200717244516444 6.375413981792672 7.031358531410056
7171 7171 1 0 9.775740392177923 0.36702700042768827 12.434551496782806
7172 7172 1 0 10.025880814587058 0.8403129614773116 10.942437799879828
7173 7173 1 0 9.21838859163501 10.79764210673557 6.67136003746263
7174 7174 1 0 1.6230907464499276 8.098230891430601 1.2539572209331258
7175 7175 1 0 9.579653305299072 6.895139060875336 3.6123015872493367
7176 7176 1 0 9.660388325487219 10.553365241546782 6.194826411749674
7177 7177 1 0 12.163437066569674 12.083539972665488 11.93883828243736
7178 7178 1 0 6.048019571711416 12.27912361448621 6.724159941650267
7179 7179 1 0 11.985388866590167 11.991588358786666 3.5814233147456482
7180 7180 1 0 1.7689518262659083 12.399005150983557 0.2761040121280754
7181 7181 1 0 0.45952031559448275 8.271186224041337 12.934306425166135
7182 7182 1 0 1.9351439210685812 8.28400535939153 11.578181726457291
7183 7183 1 0 4.987110462322232 13.974383345492399 10.365639801354199
7184 7184 1 0 2.432127531565407 4.391631010320743 3.8295601410249205
7185 7185 1 0 3.0284352517926276 4.350792155745273 2.262027437697922
7186 7186 1 0 10.02475786107389 7.893286150642965 12.322595788421909
7187 7187 1 0 7.910664456445504 4.334077895168911 2.4707651404158066
7188 7188 1 0 13.6266541269282 3.6761998375921254 11.952984870432768
7189 7189 1 0 12.22986403363053 8.901035558252314 12.652632705370943
7190 7190 1 0 10.69728801791774 11.82932919478726 3.647273212497317
7191 7191 1 0 7.0766925942054515 8.442533930136765 10.474534541126006
7192 7192 1 0 12.662497795539986 0.28960153957020957 12.999720863937993
7193 7193 1 0 13.759314878723472 10.323165819617387 4.750953051544075
7194 7194 1 0 3.9811279762717686 10.867853646329243 3.7324182237782773
7195 7195 1 0 8.963525643740892 12.006598035899232 11.685002417357389
7196 7196 1 0 2.1066336670862977 2.454102188935606 13.74117266143257
7197 7197 1 0 11.535671195437809 8.799694813633387 10.725868433260205
7198 7198 1 0 14.038827767498258 11.973160656332281 6.37321359161173
7199 7199 1 0 7.012979813037088 6.184383398076309 1.879897069246931
7200 7200 1 0 9.46687876929291 13.226720827556845 10.1260384465545
7201 7201 1 0 6.989905818992856 8.990876634636068 10.660877761363363
7202 7202 1 0 8.306817736045103 7.940669160244242 0.32140688934410694
7203 7203 1 0 3.6539986091217265 4.267643131715785 10.663905821998977
7204 7204 1 0 1.9404006671006053 13.359416544505585 8.892666553319849
7205 7205 1 0 11.762275956210866 9.709215506200298 13.319846206327815
7206 7206 1 0 8.321778782961923 5.2177096917072205 0.8990817770772025
7207 7207 1 0 1.7752429496582611 12.810145504689348 10.122531781613137
7208 7208 1 0 10.160232914038104 12.075937086271345 5.9981831804389385
7209 7209 1 0 10.525386465142391 6.534542730652796 12.186727148485666
7210 7210 1 0 11.443121962154194 4.06298357401784 4.276954944932259
7211 7211 1 0 9.003933267425747 12.478409097159815 7.215051489575287
7212 7212 1 0 10.953436232172209 5.154709794218838 1.3181837838690338
7213 7213 1 0 7.745575260582167 5.418712825047787 9.524049640022659
7214 7214 1 0 9.915801931525511 9.770061288905657 1.555062761560497
7215 7215 1 0 9.363317526475313 6.894385627752429 9.063884841581682
7216 7216 1 0 2.4193197823433845 13.766928340089596 12.01108348793281
7217 7217 1 0 11.95783761033924 12.859552056493728 6.67847632119763
7218 7218 1 0 12.834698015998152 10.091048665433345 8.57828317114525
7219 7219 1 0 0.09243058827080264 4.4036811233319515 2.1494331633823456
7220 7220 1 0 8.06247421938235 7.084874152321665 5.545041103912946
7221 7221 1 0 2.846417249811201 2.338078382974319 6.364176855237643
7222 7222 1 0 0.29787536398819 10.345521154972788 2.4531157979053115
7223 7223 1 0 2.359420609637019 3.729867541706533 13.82499211505226
7224 7224 1 0 12.507487421869943 12.9405294569827 8.17571478542916
7225 7225 1 0 13.382330084478875 2.633240638537664 1.9339848090515095
7226 7226 1 0 6.4161815106487845 3.3087278829754565 7.468427748243348
7227 7227 1 0 12.424359773264714 8.27871873611146 0.6098872711270992
7228 7228 1 0 12.988234462894074 11.825024192905977 3.5993289623524056
7229 7229 1 0 8.270418504379258 8.595402216971669 3.6563739082402646
7230 7230 1 0 10.120412136025337 0.7436729295173165 4.754578564001421
7231 7231 1 0 6.036741179437304 8.856541698680877 11.628155830941301
7232 7232 1 0 5.347794663953885 6.282394965054322 11.81213852678728
7233 7233 1 0 10.226226215557139 7.189851468319953 7.1953718175934025
7234 7234 1 0 1.3831943305462837 8.164425066526169 12.269788451993124
7235 7235 1 0 6.3007047293379355 1.954081319679001 12.659171738226375
7236 7236 1 0 0.6734907662068014 13.909375384932254 5.1362346458726815
7237 7237 1 0 1.119569305663756 0.8521182045427909 14.041602369758554
7238 7238 1 0 11.870316941640674 1.2185624846516285 6.165843467145619
7239 7239 1 0 4.632613506281766 1.888677584204145 12.226059055207067
7240 7240 1 0 2.7195034677905023 11.592454512429054 1.4798028047971639
7241 7241 1 0 12.362707254424022 10.283850486276101 11.573531273248106
7242 7242 1 0 7.4883548792722054 4.259315876850719 5.518487529827575
7243 7243 1 0 9.30548197326146 13.159489407328381 11.264080794813557
7244 7244 1 0 12.950507279448583 11.075787772769358 3.44029957681313
7245 7245 1 0 11.076589259453252 10.109562118199355 4.272942954526503
7246 7246 1 0 4.616053807043359 9.578536348773298 2.8532905534813713
7247 7247 1 0 13.367407930051616 3.781462495114746 0.7848476364100034
7248 7248 1 0 11.399033744320619 8.49539093844861 9.11775197689511
7249 7249 1 0 6.2243482146047535 13.087554339834826 6.704751034456084
7250 7250 1 0 10.407108156559577 13.928259349320175 9.389356989866096
7251 7251 1 0 10.142132571154587 5.258427745460136 2.720915042754178
7252 7252 1 0 4.848168168428378 1.890065460776951 8.051764177238212
7253 7253 1 0 7.285272039908158 2.5938327518667808 5.717779340719845
7254 7254 1 0 0.6693522255026111 6.63545721569842 6.773519533556164
7255 7255 1 0 12.946113974850913 0.3919521001103645 11.66348414201278
7256 7256 1 0 9.499773968898374 8.41505648531975 4.974735755138496
7257 7257 1 0 13.438680216609505 4.61762391966841 0.4657057320007019
7258 7258 1 0 4.45368757958888 4.659952339208871 4.625937973941068
7259 7259 1 0 0.8106388089450407 1.8762323465745017 6.754173294958862
7260 7260 1 0 4.185852810643837 8.156810241280846 5.565924289483937
7261 7261 1 0 11.567340121668838 12.316478611161223 9.537785273733974
7262 7262 1 0 0.659414485411488 4.764065194237061 7.8551318271275825
7263 7263 1 0 14.05536593979118 12.29711625620175 10.093890908010174
7264 7264 1 0 8.157005454439828 3.275020386102094 11.44355801711881
7265 7265 1 0 12.699058847983018 10.143156327229665 13.507901919974232
7266 7266 1 0 7.823762529337898 1.5716822966519857 1.599755056046642
7267 7267 1 0 2.0733902283153087 9.50835023089943 11.553900315491711
7268 7268 1 0 0.6568629406094767 4.215361211444544 9.191149596128783
7269 7269 1 0 12.32074233450951 7.6528780558252425 8.685808335719399
7270 7270 1 0 4.128255504523498 3.331366555624284 9.01151501342548
7271 7271 1 0 0.7762773731558492 10.987236767036256 13.526776267524998
7272 7272 1 0 10.782002705335504 4.483925785587413 7.0711872845433765
7273 7273 1 0 12.878774842203015 3.3623140558121967 3.453523392942273
7274 7274 1 0 3.2113549425092405 7.302793012835095 12.928251966076001
7275 7275 1 0 2.217256900879751 14.032204741435665 5.938888133761262
7276 7276 1 0 11.383288040499968 11.368320162438792 9.099311594426421
7277 7277 1 0 0.04032576917922366 5.478512144381842 3.6223904239652467
7278 7278 1 0 8.078921184322644 10.216762972235333 6.205437603465115
7279 7279 1 0 1.5889357158832653 7.206515853567516 7.641257946425401
7280 7280 1 0 4.812915853174089 2.2122319506468644 0.7977094969999347
7281 7281 1 0 12.931345991247737 1.5349817195404212 11.354365752018877
7282 7282 1 0 10.670133066186226 10.733623489386964 8.905515672072907
7283 7283 1 0 7.2922898928654485 6.280922513212025 9.40874512254252
7284 7284 1 0 13.679762223419988 0.5301748213678886 7.516363408225409
7285 7285 1 0 10.953018358915509 3.8589390280987947 0.5355426777860711
7286 7286 1 0 6.376620908530565 7.677412966095178 1.223602627604292
7287 7287 1 0 9.921274256240634 3.374761011087291 12.401001068544744
7288 7288 1 0 4.5085660105573995 10.015280401393623 12.948349306692757
7289 7289 1 0 13.536078380198896 7.8945281704880905 11.192183100113185
7290 7290 1 0 6.561922800099042 10.436597112363284 4.305447483168349
7291 7291 1 0 11.59941458977119 2.6671573491340435 7.816045611776561
7292 7292 1 0 5.149245034672901 6.812697420671865 10.154636327183052
7293 7293 1 0 11.029358093393538 8.476044391193367 12.707716771056683
7294 7294 1 0 1.3163002981913576 3.0512340980775803 5.595812123816593
7295 7295 1 0 8.334854515059902 10.667250345457168 2.4309491475861145
7296 7296 1 0 0.5479694585169033 7.185633702471003 11.203713653500865
7297 7297 1 0 12.019837157435873 11.987503187377413 0.3484114864552855
7298 7298 1 0 8.178033668055685 2.6058240219094437 2.7961165871073796
7299 7299 1 0 3.2716258114896926 3.1385476463967805 11.352553804069357
7300 7300 1 0 10.977142836343752 4.103543903025454 6.784711667249028
7301 7301 1 0 2.956388968795965 6.9465381389317296 10.50879734697152
7302 7302 1 0 3.752553025058894 7.056117491967689 13.335220498356504
7303 7303 1 0 12.150819979246611 9.161413962828313 10.204632075437898
7304 7304 1 0 13.376707392055753 5.735422324690356 12.72623211225807
7305 7305 1 0 2.204340432578125 0.1410672354306924 4.915620161145924
7306 7306 1 0 11.345042925408583 9.513172579985563 3.5581909362099218
7307 7307 1 0 2.0253526387714325 5.33546338177574 11.235509191332643
7308 7308 1 0 3.523656297292124 6.41365176406633 13.64093980913312
7309 7309 1 0 8.57509518494727 6.091786119331175 12.23386998236206
7310 7310 1 0 0.0777271769809111 9.90334716178334 0.6444427079256625
7311 7311 1 0 5.008601220375454 12.748574517957689 4.783933397910863
7312 7312 1 0 10.287664864672033 9.083048195859265 3.8319667818992844
7313 7313 1 0 6.00313265830569 12.449344504499503 8.869806040104821
7314 7314 1 0 2.689978162917715 11.105665631758812 10.955190193170944
7315 7315 1 0 6.082502837101516 12.487978656688206 13.310100505695265
7316 7316 1 0 9.935728552829499 7.662089034326147 13.47657108153293
7317 7317 1 0 13.654791908878064 12.574296692556722 8.410679139708018
7318 7318 1 0 3.595132655160418 1.7112096738345821 4.866237104657769
7319 7319 1 0 9.706306348054387 12.732199771055445 5.242801768328004
7320 7320 1 0 7.48545738608411 13.115612501717122 13.622426130656088
7321 7321 1 0 0.8037533891125475 13.087510930458436 6.0069771723819
7322 7322 1 0 4.303344467163282 10.819228457064982 0.36758145319114605
7323 7323 1 0 13.265290876983105 12.525753701001276 12.023053762173058
7324 7324 1 0 3.3775594465295034 12.68571555812383 8.679530864162686
7325 7325 1 0 4.491208888904047 10.424376323053476 12.001596949535518
7326 7326 1 0 7.379608703423929 13.120526304671142 6.338815343883447
7327 7327 1 0 7.6626784893209905 12.602161843928577 12.621197924809572
7328 7328 1 0 2.8883060740735713 8.957733031881158 12.031542729010784
7329 7329 1 0 13.222941787953257 4.768703543295839 8.715753222997654
7330 7330 1 0 4.5778447594877845 13.632958638861274 2.179866481129442
7331 7331 1 0 5.075139210766212 7.766642207443613 9.99052843517613
7332 7332 1 0 9.85332848142388 12.930898178075976 13.878887884963333
7333 7333 1 0 0.07250169610927877 1.3021413503160821 1.1100218654966492
7334 7334 1 0 5.915145421321144 0.9344806968077033 0.7913690949224083
7335 7335 1 0 10.538181682331421 6.258161736343368 10.183576936474156
7336 7336 1 0 3.434818967643702 7.495007610928271 10.241677062672945
7337 7337 1 0 6.3724424705517535 7.484548428254553 3.9465953239692126
7338 7338 1 0 1.5782248649763244 4.208805736749189 8.450732843373185
7339 7339 1 0 8.089984305485848 10.725816950179402 2.0522680815222767
7340 7340 1 0 9.803003914683766 13.634135559436148 6.090203057433253
7341 7341 1 0 6.104940599393197 4.733078938981749 1.4530460017823617
7342 7342 1 0 1.9423029394101066 12.166708041460495 10.477048853250976
7343 7343 1 0 3.7933368988013028 7.367290080448932 8.814640230774248
7344 7344 1 0 9.2051266734654 1.4925050301171274 12.825062938300237
7345 7345 1 0 5.291174623955825 2.7456621497280937 10.702621945862314
7346 7346 1 0 13.756094933533427 4.052817713275166 7.738229152046793
7347 7347 1 0 4.297761786540101 4.719106704310098 10.536447338539558
7348 7348 1 0 13.89806491529403 7.415148424863346 7.040454832995856
7349 7349 1 0 10.211966294013651 12.310750864344598 5.254461496350219
7350 7350 1 0 5.923615827704879 4.736311757571146 6.833759545108984
7351 7351 1 0 8.988700204548651 12.225272248960717 13.595323088164257
7352 7352 1 0 13.68395847730615 1.2840968318707877 1.9785238378780767
7353 7353 1 0 12.335083171478635 12.479814958336286 6.4526622853716145
7354 7354 1 0 3.9647824036626877 4.86429096752352 3.940571070123829
7355 7355 1 0 11.108009968102163 11.998128005468226 3.6338620670410164
7356 7356 1 0 0.9222896252748289 11.542855116614787 7.373320814923745
7357 7357 1 0 11.436074004119371 1.2730812577406743 6.018435603580089
7358 7358 1 0 4.041133818336127 4.662505537350787 8.322553694586272
7359 7359 1 0 11.437058096014628 6.397141422858842 0.43768965462913373
7360 7360 1 0 8.086622588728966 1.6528695621750586 2.3789834823527594
7361 7361 1 0 8.828282508614743 6.396027534718572 9.962420138108792
7362 7362 1 0 5.4900767765362914 2.447572157656517 4.102571670308877
7363 7363 1 0 12.62438873546706 2.231467254329893 13.916538042483745
7364 7364 1 0 3.33151938453574 2.812777725436142 6.16129378597615
7365 7365 1 0 12.898498581588333 7.9476310849430805 11.739730656976159
7366 7366 1 0 1.9290231350261857 11.516141688950363 5.767532951957664
7367 7367 1 0 10.018800976174973 7.471433068455987 10.57608042313686
7368 7368 1 0 12.318352333448495 7.850580418870126 8.718414085295892
7369 7369 1 0 1.6571865171071818 11.497243717355504 1.5845563581457984
7370 7370 1 0 2.1407506184657006 11.79957952852224 1.0823488061312851
7371 7371 1 0 8.70611996007316 4.573616547015749 3.445326021113553
7372 7372 1 0 9.924190141445555 1.2950116468048434 2.0174347260282657
7373 7373 1 0 0.7190822288470292 4.288712274335833 6.989226773906301
7374 7374 1 0 0.944406448435343 0.31774609205985743 9.648535482520208
7375 7375 1 0 12.125208575595712 3.3449760376495887 8.438704232679362
7376 7376 1 0 8.899846157612986 3.8479589654989113 11.644217604832892
7377 7377 1 0 12.786056087537897 13.348538594338544 10.154313220397542
7378 7378 1 0 2.6641281758325492 12.665910485668167 9.240808230693668
7379 7379 1 0 0.5188068655357826 0.2667386303446194 0.9029699138172248
7380 7380 1 0 9.45123717489078 10.21111529950088 12.646867395193073
7381 7381 1 0 0.01746549849020043 6.502136576989179 0.20251273109234205
7382 7382 1 0 12.096315639754538 5.059157426556177 0.23588281105702943
7383 7383 1 0 11.095348800073648 3.195719306369209 10.04462916408912
7384 7384 1 0 2.897600100110153 9.727851370791353 6.816629690320358
7385 7385 1 0 6.77904019729976 9.382893513841374 13.314528437658488
7386 7386 1 0 12.230425007285701 3.9044559104802525 1.3559492950416172
7387 7387 1 0 6.038922719307003 11.04312166269247 10.955945773711221
7388 7388 1 0 9.051584376958855 9.985362583578704 0.5796662822483738
7389 7389 1 0 8.079867115508602 4.015841453993822 4.465484933462706
7390 7390 1 0 2.0517762653190705 9.765747485004047 4.297986377368644
7391 7391 1 0 12.776459874418375 13.161124599510496 7.910742464686204
7392 7392 1 0 11.29457134997381 4.263712151636988 3.80569249689276
7393 7393 1 0 5.152763419075121 7.556080244524952 11.107856402583348
7394 7394 1 0 3.367371887056184 0.453531695865338 1.3589187390428308
7395 7395 1 0 7.852375922955449 10.846764724832704 4.570626073944422
7396 7396 1 0 5.106637281803263 4.508767245005529 9.546801208957087
7397 7397 1 0 0.6880609152281092 3.2158072384453167 4.894078969827488
7398 7398 1 0 3.9383863008074917 9.97515921117673 10.316021767365305
7399 7399 1 0 9.16738758913951 12.634681642662313 12.884055599822673
7400 7400 1 0 8.505625121367304 1.2763721262974248 3.6362697946720988
7401 7401 1 0 7.78170057156309 13.04828801521408 8.585253551819653
7402 7402 1 0 1.1706492806083593 8.215911465123442 12.74350157743343
7403 7403 1 0 10.866773666637256 4.529689672159705 5.572032095907338
7404 7404 1 0 0.4902057306765352 8.729316836130161 1.8008986059108365
7405 7405 1 0 10.559354465997437 3.583494281056919 3.0167024874324113
7406 7406 1 0 10.685726791959048 9.160665011461044 5.1139058355700895
7407 7407 1 0 4.641436552591696 10.963597567250346 4.830702491328296
7408 7408 1 0 2.468203464482091 12.775031266821008 11.14422407312807
7409 7409 1 0 11.12290117191414 0.47389824158346705 4.171100746174497
7410 7410 1 0 0.9502433163004517 0.06547239385023575 5.21258995133406
7411 7411 1 0 10.359678196523507 5.07482570214613 0.030554794517739254
7412 7412 1 0 4.823964937391414 5.571664329663594 10.732182933519578
7413 7413 1 0 0.16474882035742333 4.330464397533894 0.6983385463618336
7414 7414 1 0 12.855548725395867 5.167949141913167 10.406192114780492
7415 7415 1 0 13.447068161301976 5.847983204154583 4.115095296144225
7416 7416 1 0 9.38253186002465 2.3516218542136023 1.51949036772079
7417 7417 1 0 12.518679091025643 5.469914905590854 13.140585319689421
7418 7418 1 0 5.979595532987056 1.4464714731479267 9.28568083069763
7419 7419 1 0 12.04307628364135 2.8627705829695294 10.968119782399532
7420 7420 1 0 10.206216792541214 10.12506936850089 8.602904299547998
7421 7421 1 0 9.691067541212103 2.4936579548070186 5.688534509378701
7422 7422 1 0 8.317920266528395 0.4078437591673101 6.046472501924837
7423 7423 1 0 12.225442409912336 12.664521466209457 5.0024323722705
7424 7424 1 0 1.8484331197110804 2.03397376982094 6.878334014077651
7425 7425 1 0 0.5692437890311314 11.764253108526844 5.368756757117259
7426 7426 1 0 1.6814258204671773 1.4860502674429217 6.177632323422538
7427 7427 1 0 10.80014265525718 7.224710174953353 3.67487569977046
7428 7428 1 0 8.350626435220986 10.855722953774592 13.601548648408336
7429 7429 1 0 1.7375944018871545 2.5673390274275616 3.89367123617087
7430 7430 1 0 5.386858494281158 10.803183224659637 4.616945814532272
7431 7431 1 0 2.903149437951102 13.520937977228108 2.7182590327747973
7432 7432 1 0 0.7479146967099561 5.144269793012876 10.18523680789411
7433 7433 1 0 13.160554052962265 9.393223566780193 13.774065458321871
7434 7434 1 0 4.868426847839428 11.01647302201268 9.159046409301135
7435 7435 1 0 1.4783604837451845 8.477083987576973 7.656134631572018
7436 7436 1 0 4.394366777915618 5.744450821788505 1.5246060357392002
7437 7437 1 0 6.129679918763984 12.4414827365776 12.552804132593403
7438 7438 1 0 4.804040118752747 3.609460772692687 1.0285640073497582
7439 7439 1 0 5.895474840207949 6.268799609828187 6.319027772105753
7440 7440 1 0 8.369957903439921 4.7830203370539595 12.33540996055543
7441 7441 1 0 2.084039940674446 4.152660230790295 0.7698970672613475
7442 7442 1 0 14.031750486519444 3.514346969988535 11.780976857776936
7443 7443 1 0 7.579014054703541 8.386767202966054 10.248429526802662
7444 7444 1 0 8.562665554995414 11.629467395696626 8.210948246287407
7445 7445 1 0 11.076251332248924 7.126348934984279 5.430448914334802
7446 7446 1 0 13.732844222246214 7.791573560653665 12.827694646842087
7447 7447 1 0 4.159656736219169 13.346992281184914 2.2396787536490006
7448 7448 1 0 5.790542332364428 2.5510158727448227 2.8409985782159124
7449 7449 1 0 5.088000152494297 11.872014539681874 9.077594153658225
7450 7450 1 0 8.55540779013132 5.756485184083147 13.451260815630521
7451 7451 1 0 8.761452558231948 12.01079260913596 0.719367857769253
7452 7452 1 0 1.4967618392586193 9.578862413666975 0.9005120686096807
7453 7453 1 0 3.6137424377765575 4.132975803152276 4.628300461781259
7454 7454 1 0 0.6320919828264776 6.213864484166872 11.831062996908361
7455 7455 1 0 3.1799760653350453 11.282191003441053 4.834082517438669
7456 7456 1 0 4.706990181969997 1.5374191667627717 13.177942911442807
7457 7457 1 0 5.83666868478067 10.386480621069792 6.585987783207675
7458 7458 1 0 7.421031414692008 3.1123063793879138 11.896312119862962
7459 7459 1 0 0.3631900544257029 1.342850513070276 4.082662738508509
7460 7460 1 0 2.3845222316716645 10.381866086482852 2.2419894223827033
7461 7461 1 0 7.655814741316283 4.216557576714586 5.3020191199822735
7462 7462 1 0 10.097945330390749 2.0429384619393365 8.74072345778225
7463 7463 1 0 11.47471021217536 4.63676336597812 0.6319052864779061
7464 7464 1 0 9.616319852341892 10.902719948158378 0.27125167132309724
7465 7465 1 0 3.377877890750163 7.097079320034023 9.280885456703668
7466 7466 1 0 2.4025700362016327 10.32787131825765 12.682307040078301
7467 7467 1 0 5.821300136136585 9.24407450337443 13.793766369660432
7468 7468 1 0 11.095597162885047 9.498150512525331 7.863530264447415
7469 7469 1 0 9.913014584163529 5.746650523525512 13.472314054740934
7470 7470 1 0 9.244725629124616 13.896606978110361 2.4081138805900846
7471 7471 1 0 4.264665564028064 2.393798274976902 10.563400255751157
7472 7472 1 0 9.795340723057395 2.649917134060923 10.934663506633928
7473 7473 1 0 12.444038223595722 4.793496630605305 6.816714802082832
7474 7474 1 0 8.864855812262986 13.313399108154417 11.296331831551784
7475 7475 1 0 8.0788184483511 2.9040908810811517 13.89119061953145
7476 7476 1 0 0.5319824801640196 7.612044955115653 9.196217338676554
7477 7477 1 0 10.35320509727035 7.168667092959759 14.028081363772518
7478 7478 1 0 2.732875737734344 5.281249871516482 1.4945537668190696
7479 7479 1 0 0.12830015125275396 4.203879664546621 3.7806825834366653
7480 7480 1 0 3.7966836928406247 2.531288756263048 7.274099608188599
7481 7481 1 0 12.472463303233248 14.024091881715327 2.3668508266119352
7482 7482 1 0 2.583081738906502 1.7239941328565314 9.925899114137168
7483 7483 1 0 5.852659351768057 5.922386617923627 2.7995270185913137
7484 7484 1 0 3.495775147297474 7.929295108834703 0.07557783572141345
7485 7485 1 0 9.113795614093007 10.773482415574495 12.827693465518822
7486 7486 1 0 0.644339496631399 6.76355096760671 5.371769188904618
7487 7487 1 0 6.293467469882385 3.143519996316789 2.0895094320240903
7488 7488 1 0 10.043969837025315 11.652757139887912 3.4472732800928116
7489 7489 1 0 3.7371845957906693 1.3008773032873038 1.79490591859058
7490 7490 1 0 8.895775813312337 5.433209463944763 5.44609528096773
7491 7491 1 0 8.38581073930305 3.594542688896664 7.5786272736109614
7492 7492 1 0 13.859976201433538 11.902939193098405 11.652480632503575
7493 7493 1 0 13.364334344365906 0.8744343070609072 5.9690904250886785
7494 7494 1 0 1.5923113462697103 0.04644833603165679 10.037292388897107
7495 7495 1 0 12.24308851697212 11.354016908732902 2.1493390948770945
7496 7496 1 0 8.426423452985992 10.092258132267082 8.599323108305061
7497 7497 1 0 0.8595041857189232 8.195839212971343 7.753588882038506
7498 7498 1 0 2.057781694449425 10.522164750538877 5.762508558706369
7499 7499 1 0 3.216134479287512 7.993305924319709 0.36011302106714743
7500 7500 1 0 11.004965387306356 10.413971189543581 8.652280128600362
7501 7501 1 0 10.680629439145012 0.2623604222010653 13.672543484891424
7502 7502 1 0 7.301658628272469 12.949187318763618 3.4269134007956605
7503 7503 1 0 8.106750446462007 12.593399822904141 10.365272900477256
7504 7504 1 0 3.5637204529066544 5.74219411809953 9.62969025442484
7505 7505 1 0 2.679100415610964 13.294424539638289 12.930390826041904
7506 7506 1 0 11.699702386338931 12.372104426521016 1.9868877002464234
7507 7507 1 0 5.127088874220844 1.2768814768924752 9.78829264897561
7508 7508 1 0 7.242730670464088 3.364447053743289 5.531439426856756
7509 7509 1 0 8.89990789623671 0.42546949808126433 12.092813340724135
7510 7510 1 0 3.735375114353413 5.816427811613647 10.508546846900298
7511 7511 1 0 0.581417510933797 1.5805563928050863 4.565801353341465
7512 7512 1 0 0.601786636074109 11.572298038404886 14.01138928514973
7513 7513 1 0 7.534891833808019 3.4972829305996105 5.000680905320199
7514 7514 1 0 8.263112326757259 6.365792208192518 6.568094195964121
7515 7515 1 0 8.9507207924727 4.989953725163292 4.665764983340473
7516 7516 1 0 3.0909461397722198 12.99629885154158 13.005398556844533
7517 7517 1 0 11.36076578733038 4.89744773165223 12.914216429612036
7518 7518 1 0 9.360471228438447 1.564255226030697 11.006807732618064
7519 7519 1 0 5.732918760958851 2.0251754629027894 7.47482215148459
7520 7520 1 0 4.646139254245939 6.634223727581951 3.2441902348071925
7521 7521 1 0 1.680061905585068 0.2423450402029408 1.3084518479119203
7522 7522 1 0 1.806882298339866 2.5651883613081203 7.722024393931654
7523 7523 1 0 11.91040174080744 11.193435319002255 5.432399776923653
7524 7524 1 0 7.795401357515062 8.325903763349416 3.790548725310034
7525 7525 1 0 9.397927783439071 2.530342504293856 9.262303771718335
7526 7526 1 0 0.0058557051695502646 12.668009282411688 3.159897460200765
7527 7527 1 0 4.9799562634763985 3.876548669921677 2.894573183597532
7528 7528 1 0 2.64905918070448 7.59568575255886 7.0834448787154765
7529 7529 1 0 4.101241412674122 12.291246761616831 6.676285623638963
7530 7530 1 0 10.359298062420722 13.68931140200095 6.285914480015669
7531 7531 1 0 3.0619889511009877 12.90617192657813 13.667356092918194
7532 7532 1 0 5.771915686108751 1.535738336258087 2.6870295942418965
7533 7533 1 0 0.2341231548551094 9.600737823062689 9.40412238299271
7534 7534 1 0 9.305482643917662 3.936010602208602 9.831170223979386
7535 7535 1 0 8.495884285096169 0.9969499407755296 4.542146400113078
7536 7536 1 0 4.703446697589305 12.069197140594001 1.3808121103499047
7537 7537 1 0 1.7737652269825144 2.2148339527193066 7.833886010378125
7538 7538 1 0 7.25058533573308 12.46291555928822 7.5642923655010375
7539 7539 1 0 2.304739571657871 13.65117525687758 8.271115516425374
7540 7540 1 0 0.5049536923582427 13.354021511416748 11.95466201271657
7541 7541 1 0 6.449295132223892 11.611972546314023 12.014616922461158
7542 7542 1 0 8.277414723685308 11.965334509263055 11.284828354399624
7543 7543 1 0 8.324192950847523 5.340728799278497 13.991692604672778
7544 7544 1 0 12.456036628010741 7.641071699996159 1.7978901848379043
7545 7545 1 0 8.79904301721401 2.3791606535661822 7.494545188560737
7546 7546 1 0 2.749528136041352 0.559887539623161 13.645476874679655
7547 7547 1 0 12.488552594975198 13.253680002042323 9.227261899442395
7548 7548 1 0 13.71151031811269 3.0275129669678136 7.9364223399480025
7549 7549 1 0 2.979813338804661 10.225098612702862 11.040166585413333
7550 7550 1 0 4.974669220638231 9.54121204137095 1.2520578721199
7551 7551 1 0 0.27262335673417254 2.6960635021218575 9.905902440789292
7552 7552 1 0 2.0912295840657156 13.294327338646454 0.6114069636652258
7553 7553 1 0 4.209678516703442 7.322285130064368 11.149822763408663
7554 7554 1 0 2.0197406109454032 0.5010842215848003 7.297846879475111
7555 7555 1 0 8.300717782120904 5.854712422053478 6.33919118763435
7556 7556 1 0 8.450709258180241 10.633619608057943 4.377893780119678
7557 7557 1 0 13.319197348563728 4.077306222945174 7.308593599295336
7558 7558 1 0 1.740326638497628 4.30725012392013 5.6194976630275635
7559 7559 1 0 2.970678052393565 12.952029732016703 12.471467232470411
7560 7560 1 0 0.31984493513358775 10.683196780955551 8.904294646307665
7561 7561 1 0 0.3783227283332168 9.751719682892327 6.375489612770267
7562 7562 1 0 11.287074686142754 3.9606085945969904 9.30976509586943
7563 7563 1 0 0.40527499382223886 13.606987550595326 13.977902162703119
7564 7564 1 0 6.856618823364879 10.013906940466837 13.686684001930718
7565 7565 1 0 4.594379867913458 1.8371708652667607 6.369284662155503
7566 7566 1 0 2.900656599019576 12.152982876492874 2.6546106292544285
7567 7567 1 0 5.436552800154673 0.15233297044663466 11.637171832940956
7568 7568 1 0 8.012025600784682 1.8214799517298221 1.1398318004621137
7569 7569 1 0 7.438361865587597 7.124358479173243 9.361418202800103
7570 7570 1 0 9.607070013552715 0.012162611175768579 13.464571106753043
7571 7571 1 0 9.218365044595927 0.5738589008337414 6.904789312775047
7572 7572 1 0 13.142495779799534 1.1349257235186507 11.573339691228943
7573 7573 1 0 11.049068098443882 13.165865399906599 9.641750892007469
7574 7574 1 0 1.3885600800066216 11.13793413819942 11.546116941855061
7575 7575 1 0 8.911434808547101 1.7814634660822375 7.378494673154619
7576 7576 1 0 9.888793596116491 4.767521509127439 6.150142016982542
7577 7577 1 0 12.5837021973449 11.090387965809146 9.518640996555945
7578 7578 1 0 12.93691816136541 9.314996870734237 9.985676232615115
7579 7579 1 0 8.496369302327718 2.3475468344152404 13.677490296168349
7580 7580 1 0 13.985040289746902 11.4926694907056 11.135762987736511
7581 7581 1 0 6.009105576986618 1.514014040483561 4.641399257285493
7582 7582 1 0 12.878680317385957 10.017715122522896 6.131417110112927
7583 7583 1 0 5.898245612750637 6.3546567285676465 11.663419096624589
7584 7584 1 0 3.0720226131505104 5.717265924128545 5.875535270012523
7585 7585 1 0 8.23674861232285 3.550497939857618 11.716693213792068
7586 7586 1 0 11.19422283070442 12.813051457513817 5.494337805531195
7587 7587 1 0 5.007594422083507 2.819178858515018 3.4234120330698254
7588 7588 1 0 6.053708865106586 9.939032100572334 1.7039011973830291
7589 7589 1 0 14.030308690828566 6.8335780876594665 13.060580194118108
7590 7590 1 0 4.170554424509552 6.748872272666335 8.789821531695074
7591 7591 1 0 1.166163065940879 7.726087788297391 11.833998935990204
7592 7592 1 0 13.96072598271355 0.04797048940221512 2.046569255433287
7593 7593 1 0 12.583865641986371 0.9294563236052994 9.154349082534578
7594 7594 1 0 4.472214023419357 10.11381065903813 12.710196318340893
7595 7595 1 0 2.5565718123146084 12.982972022896028 8.132956677313038
7596 7596 1 0 1.9305817929291023 4.231408337542131 13.734061108100871
7597 7597 1 0 10.97432449254806 10.178085165559613 2.5553859533781864
7598 7598 1 0 9.628819579075849 6.261114130678658 3.2665105983495364
7599 7599 1 0 4.496962971157306 8.895071866187862 2.440152490800855
7600 7600 1 0 1.6588890660031557 1.4305700309126412 3.673793096020596
7601 7601 1 0 8.988539278845735 0.5410007661836227 8.043670548862472
7602 7602 1 0 8.184200948531313 2.617905770354277 6.985875133015254
7603 7603 1 0 3.5509634657792786 3.7567630102913245 10.85538117687472
7604 7604 1 0 2.5976515980198283 0.23154136694928693 10.037912384292907
7605 7605 1 0 0.7098492447804637 6.607342285808216 5.665546281319174
7606 7606 1 0 0.3256022386962346 8.64802387816472 0.3308178485791726
7607 7607 1 0 13.656478574207348 8.762681973032336 9.528560346023147
7608 7608 1 0 4.622197511999344 9.738693128656227 11.512162799020143
7609 7609 1 0 2.1615330186233463 13.996426622144822 10.089533956464582
7610 7610 1 0 1.7027503158348376 7.197561449201285 6.268194375368443
7611 7611 1 0 9.33080563988144 5.541769069448772 7.402770614927617
7612 7612 1 0 1.3183237974438045 9.793836139482893 0.48705876267658404
7613 7613 1 0 14.028987436046963 6.094562503762136 10.710851841111278
7614 7614 1 0 0.9224755495181811 13.902303364506574 13.678580732333527
7615 7615 1 0 10.354924188829322 13.913488437847548 2.910293873540269
7616 7616 1 0 8.76687406747761 2.4150136610294837 11.282719099430155
7617 7617 1 0 8.765345671446818 4.892180066979241 3.4387599262325104
7618 7618 1 0 9.771582955014125 9.562020570648107 13.765408787483006
7619 7619 1 0 7.884232544706302 1.283882705274796 0.45642753210509807
7620 7620 1 0 0.19132395105436412 3.91315922796824 13.690780700113976
7621 7621 1 0 7.2863663816279685 8.442342191866851 11.114235223211645
7622 7622 1 0 7.709551860504926 8.073095033540316 12.196731738103479
7623 7623 1 0 2.5375610247588583 8.367082365618792 5.387815100379704
7624 7624 1 0 5.171028867458288 6.95161191761651 12.488199535670361
7625 7625 1 0 3.4845673594221807 6.120064563244489 9.462076246784946
7626 7626 1 0 12.184860708146338 2.890252407318629 11.099776519654256
7627 7627 1 0 0.43524924914424834 9.774959251894245 1.6796254778845292
7628 7628 1 0 2.873983197927635 10.365474605478099 2.2619937495872557
7629 7629 1 0 3.1957274065465393 10.152039041868774 3.3016646978944832
7630 7630 1 0 4.346418624306505 13.82144602844318 8.530584295666932
7631 7631 1 0 11.866065074200444 11.363903697798921 1.1941702637379032
7632 7632 1 0 4.730780721822883 8.465296865912313 1.0036247949742625
7633 7633 1 0 9.3603309908848 12.199667832381792 3.188683305498176
7634 7634 1 0 13.810863613356625 11.908679892224576 1.033668206236601
7635 7635 1 0 9.536098694944723 5.405290053178528 8.795321999689703
7636 7636 1 0 9.362912896138713 5.576932556471071 12.880661115418677
7637 7637 1 0 0.22162586849550645 7.2816956266701425 11.824035218928142
7638 7638 1 0 9.61124479624384 12.77861357039927 5.360225237728562
7639 7639 1 0 5.465540219484089 2.3610781179538676 4.362661567566566
7640 7640 1 0 5.488189540178261 6.9649383099858895 0.9537844466573712
7641 7641 1 0 10.196504200355898 0.8745920221183517 2.1908206411691697
7642 7642 1 0 13.061762265896856 4.67680135387928 6.2131390713214785
7643 7643 1 0 8.383589939537435 2.4345285113483786 13.403692609610612
7644 7644 1 0 5.1047911200453555 0.2528432919622795 12.435048661856651
7645 7645 1 0 4.913411032474533 10.84443296181453 8.776442254882118
7646 7646 1 0 11.742803367870382 2.9926283141888055 12.829783568744897
7647 7647 1 0 12.893264467209455 13.429381884712337 9.480648328533686
7648 7648 1 0 13.97448625295319 12.683875210378107 2.112750810639962
7649 7649 1 0 5.340475642402129 9.037897831354684 5.283435943559289
7650 7650 1 0 10.139097076165129 11.398922507716854 8.226771046161778
7651 7651 1 0 2.5951735906736775 2.071462323264148 7.678619881457035
7652 7652 1 0 3.8188609928378776 8.556421046964243 5.114129420240402
7653 7653 1 0 0.555541624434518 2.4031924832793434 0.9729197523289972
7654 7654 1 0 0.1905526969519777 1.3182324977319646 11.297409271822467
7655 7655 1 0 8.155399760138748 8.786113015822803 5.925192186504593
7656 7656 1 0 13.322554822854391 9.339890194850467 0.19808597112959372
7657 7657 1 0 11.93192966206833 12.596215674406489 2.155445116020624
7658 7658 1 0 9.97430596826286 11.736396518029567 3.6489071945504556
7659 7659 1 0 5.700865512975938 6.7342830827688465 11.413052567842003
7660 7660 1 0 4.993339552071486 7.868532497296163 5.633485048526771
7661 7661 1 0 6.725927426986132 12.283364558784724 0.22529930809160406
7662 7662 1 0 5.021438420985421 7.378380728261519 11.212217466854932
7663 7663 1 0 3.2650184436370053 10.84860383908234 5.396375643901799
7664 7664 1 0 2.8120087701367957 3.412378180406265 11.830102966740732
7665 7665 1 0 7.6346049252373325 11.256183720658237 2.2816179752246732
7666 7666 1 0 8.61256293263777 5.038191332062863 5.743422670170479
7667 7667 1 0 3.0047892373988936 3.7566625809866956 7.61861019449049
7668 7668 1 0 0.6152070289429873 5.507563955470339 8.391298122269873
7669 7669 1 0 7.337417105635162 2.179334808988664 5.5257023838358
7670 7670 1 0 2.120846762727477 13.87353356690234 1.4566194459634794
7671 7671 1 0 4.530858525683295 6.859329063932526 11.214702950201012
7672 7672 1 0 1.6646166242066653 4.075956976622413 8.532630981967621
7673 7673 1 0 9.451776363502907 6.991092548721201 1.5501710350712674
7674 7674 1 0 11.309057531046212 7.502599128852228 1.7598380370787199
7675 7675 1 0 13.84701347038441 1.6590477320462054 9.11395598818464
7676 7676 1 0 4.582735584255923 7.168673754599795 4.52710544363238
7677 7677 1 0 5.669328259298151 4.918933863034612 9.09347663295727
7678 7678 1 0 5.21885335634539 13.99954007682792 13.482535155317004
7679 7679 1 0 2.385193269065642 1.5473360154981328 0.8349517474356546
7680 7680 1 0 3.586517413248691 9.596512892333816 7.518796350909508
7681 7681 1 0 4.708620715845734 8.644308485537723 9.520795168560355
7682 7682 1 0 3.6839698167049626 0.12011072808428379 11.00142306050663
7683 7683 1 0 8.349057340449063 11.088143470520805 2.0138556773838974
7684 7684 1 0 2.865033058314109 5.130142838017857 2.566589481364976
7685 7685 1 0 4.4070330997525735 7.367477802598518 13.825752293322092
7686 7686 1 0 6.133898364317599 6.186643908058909 10.865083357440655
7687 7687 1 0 9.237334620363296 5.397359835400041 11.161718270327027
7688 7688 1 0 5.623529176183933 5.7082794586601455 1.1659849097002064
7689 7689 1 0 12.403947919683402 7.869609821383576 6.267573165730988
7690 7690 1 0 8.067901533786728 9.555242182739113 2.161932540613102
7691 7691 1 0 4.047772551354542 0.3993743477195571 12.566406687457846
7692 7692 1 0 11.204528750991983 5.475972037508568 12.487780362739116
7693 7693 1 0 11.312876179692207 12.211574843451958 4.961119508484126
7694 7694 1 0 8.275955242756904 6.307024568946986 6.568647775129024
7695 7695 1 0 9.078975982754574 4.875516832497031 6.6386030415402635
7696 7696 1 0 0.46825117568697616 10.447236000498135 12.914253432953615
7697 7697 1 0 2.4322433522955462 3.4609413651197753 12.870755786528706
7698 7698 1 0 3.14478078937723 4.941797575130633 5.309926659577966
7699 7699 1 0 13.74269169474049 8.434285243987736 3.1399448903889287
7700 7700 1 0 7.591666010483388 7.715765482604642 3.8047725538493027
7701 7701 1 0 12.566132969018742 1.6993559326238767 4.764325795967357
7702 7702 1 0 6.12677748717258 13.067636791210841 0.4009124607500741
7703 7703 1 0 12.383148012652203 1.4843420965208307 4.078035511580675
7704 7704 1 0 11.260799905662571 13.763702922621917 5.0146356582083875
7705 7705 1 0 1.886359499303418 9.082084971155892 1.751884069340152
7706 7706 1 0 5.685719582756067 10.894894506879838 9.954397912977539
7707 7707 1 0 5.18375760189485 6.544096660335853 10.56114133265475
7708 7708 1 0 4.434332718834809 3.8119355754980013 6.168742704332651
7709 7709 1 0 13.917027918688026 5.030730751508536 4.502890348889693
7710 7710 1 0 13.862394655921975 4.1809759165817235 12.173525440146625
7711 7711 1 0 0.9100735175259489 9.767521721815084 3.9926111749593223
7712 7712 1 0 9.920776475247704 5.961837138759765 2.10716860039634
7713 7713 1 0 0.7368281923116281 9.806947518635246 11.067806818147874
7714 7714 1 0 1.6161619927654565 4.388095098558745 4.832551487918946
7715 7715 1 0 4.199942963064097 12.86964896960121 6.428607133789638
7716 7716 1 0 12.889814448615109 1.9672395361104198 3.671676081498314
7717 7717 1 0 1.2208465167127964 3.0359302468772276 8.083332893333951
7718 7718 1 0 9.893532258666077 8.95136363813711 13.664090187554375
7719 7719 1 0 12.211964879450433 1.321713347692751 13.94848217862673
7720 7720 1 0 8.055150786844438 12.473688316987944 9.8589871700427
7721 7721 1 0 7.415964281060416 7.739227296582535 10.420790421837875
7722 7722 1 0 1.2323779629847589 5.412163116336664 11.642207342752808
7723 7723 1 0 9.718188191127673 7.786357905723701 3.068529643888197
7724 7724 1 0 0.8006855414095005 7.081746924385665 9.020518141287015
7725 7725 1 0 6.0762482516827525 1.7687376726976027 12.997809868488647
7726 7726 1 0 3.42573578495937 1.5401822632467406 8.988958808123327
7727 7727 1 0 3.517410585948873 0.8471891212363123 9.753342684954173
7728 7728 1 0 11.059134465468192 2.099576694853529 4.4443303819774815
7729 7729 1 0 6.479223432991932 0.24649612167498952 7.655967472976284
7730 7730 1 0 13.08090257278166 3.753717859060332 3.673684046506907
7731 7731 1 0 0.5566278208810213 8.724822038058976 0.23761500200290095
7732 7732 1 0 5.669918572893768 7.242918645552698 3.929887360395333
7733 7733 1 0 12.537852338922141 2.326037898743316 1.6245351295015185
7734 7734 1 0 8.264565858888357 5.685245345165036 7.9533535500652555
7735 7735 1 0 4.913760596512856 3.5765972848804353 2.818027436500897
7736 7736 1 0 10.722088728058152 4.948386912997379 12.24791462273004
7737 7737 1 0 4.548344754958355 1.4871264385099765 2.1922713370266926
7738 7738 1 0 9.103166820247278 5.500354882391362 9.261232763665925
7739 7739 1 0 10.002531769854656 10.579291189980527 8.47610049773053
7740 7740 1 0 6.545971981440163 7.718681033501136 6.825530865973928
7741 7741 1 0 11.725729779220968 10.380847167777349 3.2053075187381395
7742 7742 1 0 8.7814543753459 0.7062878420268434 12.808182147728681
7743 7743 1 0 0.6309611918179447 5.429894545517813 3.551611036207899
7744 7744 1 0 2.6267050883074026 7.466548245077727 1.5950048765541147
7745 7745 1 0 8.014334432016003 10.560440923695344 11.889413472279593
7746 7746 1 0 10.09033975054472 1.4178202880004256 7.323818727873443
7747 7747 1 0 4.675287804618918 0.5719628374551343 7.120318537083589
7748 7748 1 0 10.600688804169796 9.813459783923337 14.044064859048884
7749 7749 1 0 13.325938362991986 10.306675557328072 9.067601090337728
7750 7750 1 0 12.91343702165624 2.4152833424008935 11.991862401422317
7751 7751 1 0 2.888523068587765 13.368944016563267 3.6848146844378644
7752 7752 1 0 7.306008993092238 3.9263201275699195 10.898872747346026
7753 7753 1 0 6.7131992797206195 3.896637668774495 8.224884654059112
7754 7754 1 0 1.086400545027846 0.9805692385324791 5.283633694893391
7755 7755 1 0 11.934198550780676 1.751448860273224 13.744740778367248
7756 7756 1 0 6.291167178795936 5.455156720884337 2.8530058367223305
7757 7757 1 0 6.065053231120536 8.048430955539633 5.738531627111532
7758 7758 1 0 3.7748129480830626 6.2289886125097285 14.045456984959129
7759 7759 1 0 2.488917757190731 6.170945383992382 3.1538509092755604
7760 7760 1 0 0.2504236169066832 6.632664589593482 6.17919111236455
7761 7761 1 0 10.227347407601366 2.632643694181474 7.757559737274861
7762 7762 1 0 7.999286687760457 2.8785514447266967 5.334667236267278
7763 7763 1 0 7.274119375935958 9.99367781629791 12.697845923260937
7764 7764 1 0 2.4494969908169315 1.9569925167197404 2.5498229322711827
7765 7765 1 0 13.814388019382367 8.114102487923601 6.689972556886443
7766 7766 1 0 4.856898408034621 5.181744953357785 9.69055137956399
7767 7767 1 0 4.640223065805047 5.281223550955957 12.341731705684113
7768 7768 1 0 6.333062752931399 8.532438136389082 3.9267969616654255
7769 7769 1 0 9.364978266732598 5.5150984108316745 2.7911819216192506
7770 7770 1 0 4.333288894819915 0.8123376553561542 13.256676025653412
7771 7771 1 0 0.8331710069873245 9.785917844408605 10.077558941010997
7772 7772 1 0 2.645242642958833 12.903451094165801 6.723371430402696
7773 7773 1 0 7.013114875355871 9.87812881173645 8.387480220908781
7774 7774 1 0 12.410308200190272 6.480259022150752 0.3789323143620741
7775 7775 1 0 10.649340481051363 6.977467132187772 11.65345596864412
7776 7776 1 0 4.612262475405185 10.479241529690054 6.514510503045605
7777 7777 1 0 8.069091116041372 9.7467780552122 8.645856906238661
7778 7778 1 0 6.955914107898244 7.556915920699187 1.0972459936560597
7779 7779 1 0 6.945171821966507 1.192531575841206 13.88180924245931
7780 7780 1 0 7.14725686428758 10.266980967677513 13.329628482899048
7781 7781 1 0 6.046360675914026 13.141523613934732 0.6420372245963569
7782 7782 1 0 6.62383982990538 11.123865350722244 7.064244027294057
7783 7783 1 0 7.634212401571739 8.374614391255387 13.0188025989847
7784 7784 1 0 5.0608467359653755 3.809584376914062 9.782406755434952
7785 7785 1 0 9.672749951034845 6.422191980270264 0.17099222328102742
7786 7786 1 0 11.340176188464293 3.89926648831778 8.940397113373397
7787 7787 1 0 12.697178907579026 10.24598735030302 5.836325402365283
7788 7788 1 0 12.185135406323182 1.3958946131578107 2.685864316000649
7789 7789 1 0 9.767071859667105 5.0380471916741705 11.90676577603885
7790 7790 1 0 10.834878426501257 4.4653468370124525 4.8861883143214895
7791 7791 1 0 4.647593608094578 3.4718001502156093 11.589562319388877
7792 7792 1 0 4.959968311825933 11.436534342509178 4.995630767937998
7793 7793 1 0 5.919221123839873 8.182419348940105 1.2606071893326427
7794 7794 1 0 1.732295681906391 4.443232827697188 2.6409081442160143
7795 7795 1 0 9.909902655804151 8.419186239837073 12.416588125396386
7796 7796 1 0 3.948430806096226 12.059786300936642 5.978656679123483
7797 7797 1 0 3.408088640493325 7.34951537261104 1.2776251479480212
7798 7798 1 0 7.87129459508646 2.1921592762830997 7.364684571949267
7799 7799 1 0 8.678466003779745 13.251298915642982 12.30084328104279
7800 7800 1 0 4.480035578341601 3.36463907804868 10.239680499204447
7801 7801 1 0 3.3735366690620965 2.938636374997456 8.64353887068353
7802 7802 1 0 8.907846610897375 1.7593247716008649 4.606914681381224
7803 7803 1 0 9.747561064914356 6.090793251371585 6.735535312687652
7804 7804 1 0 0.48916727143151556 10.364544806266938 2.9201791324869455
7805 7805 1 0 10.194899884297445 6.481217215818584 13.813253465843434
7806 7806 1 0 13.421279888261358 5.3594822693124335 8.667428089551818
7807 7807 1 0 12.699822700143098 5.980474506105706 10.365897847219088
7808 7808 1 0 10.521923963928039 5.911489426656338 12.18046131737799
7809 7809 1 0 3.083052899052898 13.388088090402244 7.220223771807931
7810 7810 1 0 6.424306952782407 10.19962220567038 1.332244808606853
7811 7811 1 0 5.233668838229935 5.707952004936912 0.9402683357032722
7812 7812 1 0 12.099048568302392 12.035550731866765 8.798452240850825
7813 7813 1 0 4.348543599672364 5.084002663376739 13.19824516400322
7814 7814 1 0 6.980424788944699 12.363683041263473 6.267897945230275
7815 7815 1 0 4.637085066380375 12.106760349645528 4.671426735510293
7816 7816 1 0 1.4157020459124814 4.527329079177136 1.810667008083629
7817 7817 1 0 13.062044956150542 3.7483108546020967 8.02292030243717
7818 7818 1 0 11.063541844915923 0.4980291181289299 1.4381897632885574
7819 7819 1 0 13.664789791542336 7.090015130059319 7.326777624935161
7820 7820 1 0 10.005334046159778 5.444651175906172 0.26185666565253324
7821 7821 1 0 8.569449621000892 11.652073537781185 4.48057895450235
7822 7822 1 0 9.837580443310614 0.43902430973833845 0.25697182901351295
7823 7823 1 0 4.637360894643822 10.21690491476822 8.20364098292454
7824 7824 1 0 1.4742829061859388 10.483875821391115 4.411492110997838
7825 7825 1 0 0.21413055690954166 6.460492257953192 3.938063412753053
7826 7826 1 0 5.4853335753911 8.460038943299903 6.753388249692768
7827 7827 1 0 7.293162984673019 0.1566070555189173 6.17949558553622
7828 7828 1 0 4.0324608772194015 6.712888882211137 1.3251777860975722
7829 7829 1 0 8.588099043082925 5.126083782551385 10.22525331250288
7830 7830 1 0 2.6028070229690736 5.918519895316358 11.949699440107326
7831 7831 1 0 11.447791832853744 3.1791912206970174 11.231890472319474
7832 7832 1 0 12.245534833896436 4.413182613491812 9.6663796883656
7833 7833 1 0 12.904054810228034 1.0429448414669407 4.000244160452539
7834 7834 1 0 2.5144207994764787 13.211620011679258 6.677472174059626
7835 7835 1 0 1.4891088484592632 6.057260200723572 7.25184006976755
7836 7836 1 0 10.875278678188428 8.371291266134788 9.918863326944386
7837 7837 1 0 11.732710083395215 13.534716164015842 4.871710330568031
7838 7838 1 0 9.273395544822026 7.550367745506632 10.878278324862212
7839 7839 1 0 13.06797739342718 1.8172427835010316 6.817584408385044
7840 7840 1 0 8.274468813528909 1.2285331944529032 6.924413571250463
7841 7841 1 0 5.982545746447621 11.860402935591564 2.026143821792523
7842 7842 1 0 2.8228246971160442 7.342067243678311 0.44593397020458103
7843 7843 1 0 0.2307697415806963 9.029190212689507 10.580343535318661
7844 7844 1 0 10.175531301243199 0.8889538649016796 1.3568556461922028
7845 7845 1 0 4.731955740574721 6.034635784975672 13.384304471693309
7846 7846 1 0 7.343159330292507 8.42656814629725 8.419570284786275
7847 7847 1 0 11.871909638963118 6.885954298351917 1.0892279225643866
7848 7848 1 0 2.751152591498673 1.4296971280544661 5.351648258162747
7849 7849 1 0 0.7609052194196064 9.618502719173634 12.810155343686864
7850 7850 1 0 4.799165720662402 3.3190138565109293 1.0019946264961146
7851 7851 1 0 7.130183163373523 2.2591607103207774 3.898998677434318
7852 7852 1 0 4.084105912059477 3.6212968988763246 10.814047537975254
7853 7853 1 0 13.801702602893345 7.989492498517736 6.3411388048482715
7854 7854 1 0 12.411574575721142 2.478499496809848 11.560651891889888
7855 7855 1 0 6.170104394526098 3.8683460005091814 5.565145583650602
7856 7856 1 0 8.22278595843569 8.611640115270598 3.474715971178418
7857 7857 1 0 2.221100229142454 0.09649038461772907 5.1644985708405144
7858 7858 1 0 4.174669049542301 7.284941646686007 4.245269106998561
7859 7859 1 0 10.86684010919812 2.8241396715069795 13.781079077094645
7860 7860 1 0 13.989718906989184 6.168951199747759 0.40692950741349
7861 7861 1 0 4.121018615566606 5.519883434546354 6.112647942473612
7862 7862 1 0 4.785509553903404 12.58544250764403 3.574736266481244
7863 7863 1 0 5.060953538907727 2.781169972552704 2.702312938579795
7864 7864 1 0 5.421606656593537 3.910423249366082 6.687529975270201
7865 7865 1 0 0.7562577114580046 8.550301201842341 6.865468877632697
7866 7866 1 0 0.7751246548830083 9.778877664407453 8.13834198110631
7867 7867 1 0 6.4748874689789595 3.9350291597834772 9.506408083602029
7868 7868 1 0 8.036098300817812 4.4366510539400705 6.24694144151273
7869 7869 1 0 11.379284527401005 6.642782207155576 0.5304016237323103
7870 7870 1 0 13.681201719730922 10.554064057829265 0.6470003606127607
7871 7871 1 0 5.7586194895858895 6.622722600415877 0.28238377118934543
7872 7872 1 0 11.581110147212575 2.5399135879349615 12.045858935863633
7873 7873 1 0 5.065220864581313 12.351434489791497 12.265982950399774
7874 7874 1 0 7.115292281193687 8.66200719107681 9.730708834099294
7875 7875 1 0 1.8126894907574322 4.7426618175049935 7.669561901195558
7876 7876 1 0 10.718677347181973 13.492479417976277 13.797223902121331
7877 7877 1 0 2.595303583973315 0.8897301902698111 7.639614752414375
7878 7878 1 0 3.740506910450945 8.400124603929504 13.850421521994164
7879 7879 1 0 0.9956029562318567 5.953118829291868 4.21785455256762
7880 7880 1 0 2.0110778732744534 1.133273040917752 2.8286903741394545
7881 7881 1 0 2.532619499118169 7.06584853991689 2.2513682554951613
7882 7882 1 0 8.831907327189754 5.652067450009321 11.811145136215863
7883 7883 1 0 12.691402078482515 4.881825320006535 7.2922710730347635
7884 7884 1 0 12.390153996621654 7.497751886445102 10.609587559715234
7885 7885 1 0 6.558839466318726 8.772241429038637 4.54897747877991
7886 7886 1 0 12.596679502095366 5.03646744295614 8.07801360962293
7887 7887 1 0 6.444031234212797 12.88650747792102 8.691264654353477
7888 7888 1 0 6.25381479942373 0.5825841678765576 10.574687190838144
7889 7889 1 0 5.575184026412125 12.120040423592776 5.771560399590261
7890 7890 1 0 12.84813192647972 9.145831235391855 5.148453657644692
7891 7891 1 0 8.501152887775168 9.756249043497204 14.063685933638187
7892 7892 1 0 10.928146822212119 5.303825938854568 7.41440941208579
7893 7893 1 0 13.301738670747136 12.655362268058944 9.561512471841178
7894 7894 1 0 3.3816862385621564 1.4294537919908763 6.468866466007951
7895 7895 1 0 4.377328059087497 12.504634229439212 7.561148406735055
7896 7896 1 0 0.6836319873614078 5.047568587580004 0.8054866398348816
7897 7897 1 0 3.0864694521857845 10.473969646902749 6.076401205788644
7898 7898 1 0 3.096670184392008 11.882735911857987 1.251074525379047
7899 7899 1 0 8.561598490333482 0.4918909066160024 6.644704766111361
7900 7900 1 0 6.1060006021457935 8.040095561662824 12.992941993336013
7901 7901 1 0 9.616998462975959 8.201625777677613 8.899748266352338
7902 7902 1 0 9.319585948164747 9.262913213494334 8.283437229429508
7903 7903 1 0 1.2547679281217563 8.008073808577155 4.315032171645128
7904 7904 1 0 8.812503982886884 14.058899321815769 13.601920579607887
7905 7905 1 0 6.271046277272902 7.851693014874241 4.796707009016368
7906 7906 1 0 7.309598916596713 12.282834892704452 6.339691547707065
7907 7907 1 0 1.2451265784026817 3.193720072247511 13.798671249915209
7908 7908 1 0 12.761924027716415 7.220872307574501 4.065927779763512
7909 7909 1 0 10.01894301270891 8.757978995037194 2.0823995908252857
7910 7910 1 0 9.196839120858126 7.768529626481506 2.452471701576064
7911 7911 1 0 6.980192063584774 8.4007456617676 2.4534249005020645
7912 7912 1 0 7.923562214502072 6.056920499134057 9.009374672387528
7913 7913 1 0 12.799378043184953 13.30920420275957 8.83947009939798
7914 7914 1 0 13.709774612650905 0.6678260102896199 1.358293676458804
7915 7915 1 0 7.599767482369563 12.473586254636269 8.00471861216604
7916 7916 1 0 3.8869127054731067 13.398879849498865 13.614842445173908
7917 7917 1 0 12.181355194146384 3.500754728173841 12.626567485555956
7918 7918 1 0 1.517658359560704 1.0736678175656094 3.906170170062927
7919 7919 1 0 2.825086902343362 12.421656027899152 5.305719455834203
7920 7920 1 0 4.655024127327377 12.142152741041217 1.5095165678113023
7921 7921 1 0 6.166609797139855 11.791188854290452 0.05628558820669826
7922 7922 1 0 4.607004359484469 13.649710162270196 9.693445560288028
7923 7923 1 0 8.415954377549083 12.685163933116923 0.6523470804052803
7924 7924 1 0 13.71998470471889 1.1211755876157758 2.4371567916333117
7925 7925 1 0 13.258564328034876 0.6875944621080854 0.7115121315529381
7926 7926 1 0 13.12095834155612 1.202235972042805 5.4630241598275155
7927 7927 1 0 2.368650573355701 5.274225744428504 6.826247277926855
7928 7928 1 0 4.579556831532332 2.3461318321503 12.336980588535678
7929 7929 1 0 3.7245956892054735 5.185275326899601 4.167290760952995
7930 7930 1 0 6.351489814717386 8.310092628278857 1.3355617707977223
7931 7931 1 0 5.766516761972639 2.3350658540407805 9.64125948362812
7932 7932 1 0 6.443245731549393 1.6102316982046683 13.162082692065994
7933 7933 1 0 7.473933961855741 4.23624238680839 6.275200095395837
7934 7934 1 0 1.470179956420985 10.387501081447033 1.067028721307509
7935 7935 1 0 6.10498985647862 8.48221695717856 3.657764534589248
7936 7936 1 0 11.231211888390735 13.801307311819361 5.49040818768745
7937 7937 1 0 8.815119207213456 5.158573540998822 10.402482260596955
7938 7938 1 0 7.126672114085176 7.070201053605368 5.809923586541437
7939 7939 1 0 13.520617954554488 12.035676346117896 1.762835606639622
7940 7940 1 0 4.338477538324089 6.008915007452886 6.360303754526001
7941 7941 1 0 0.8556889986110194 13.932164920142778 0.3535696241236068
7942 7942 1 0 0.009978877112290317 13.766947297888569 12.360374121508874
7943 7943 1 0 5.360592264680857 11.5037740251832 4.08485938431861
7944 7944 1 0 2.7954571408246798 6.323967673927243 11.546566386136035
7945 7945 1 0 13.299276937435101 9.87166647872124 4.235583991699277
7946 7946 1 0 3.683528726166466 11.426876234236339 1.6790734028880685
7947 7947 1 0 0.266506484430927 8.773849898518794 9.723837998279437
7948 7948 1 0 0.7602221161768635 10.740853275487474 1.8911753472233457
7949 7949 1 0 11.805951937263124 6.8937175185380015 10.823634005569833
7950 7950 1 0 2.1261843267198 8.914497777243335 5.248453990913135
7951 7951 1 0 8.957312098272121 7.432579798551048 11.424413528536025
7952 7952 1 0 3.264295193633711 2.719295026720293 13.184962042568724
7953 7953 1 0 0.5384475750257718 6.171640717941222 2.866067975207761
7954 7954 1 0 13.021852898384026 11.567448538635817 6.468107896722479
7955 7955 1 0 6.354380613736521 13.321355876634293 4.6736395246608655
7956 7956 1 0 3.9790256312646144 5.814636759451912 5.431070954401999
7957 7957 1 0 11.307464775198657 0.26587768694329955 2.4482480530148343
7958 7958 1 0 11.140751162727959 13.935407010879143 6.0794924892401845
7959 7959 1 0 10.030247680520105 4.342562325862649 11.158517934207948
7960 7960 1 0 9.399831389916349 9.206637175439083 8.599582367869067
7961 7961 1 0 11.10036204135908 0.25052667978052867 5.965459434435646
7962 7962 1 0 10.902647114270891 12.47745613802441 8.637774511400256
7963 7963 1 0 11.877077091555389 9.2940649452727 0.5625495664131249
7964 7964 1 0 0.8407638535316442 5.282573505801411 11.933001717104686
7965 7965 1 0 4.007997060096612 0.6930833868137134 0.13287797169101215
7966 7966 1 0 1.7413699481471154 10.207164622658468 14.009973761652326
7967 7967 1 0 3.088865837112357 0.23748869193346953 11.040685157929275
7968 7968 1 0 4.482540801299585 8.74819911684182 9.903289718494367
7969 7969 1 0 4.4179100845616 13.231466114324657 6.840141695244895
7970 7970 1 0 4.464655309227032 1.7000144376080357 8.945481301942616
7971 7971 1 0 2.1221503897806686 0.061295016387588705 3.468748883856376
7972 7972 1 0 0.16192784014083733 6.5736962058639365 4.546799281325435
7973 7973 1 0 12.51831520618317 7.776241106267493 8.673624726443242
7974 7974 1 0 8.831060172920369 9.71521861189052 1.0933219869110806
7975 7975 1 0 6.613860499961845 1.0203730918535419 1.7614471979780253
7976 7976 1 0 12.849645272395442 7.269081896717997 6.4780810766174
7977 7977 1 0 7.454708071645713 1.6193111750537728 6.530755605693315
7978 7978 1 0 9.018358860493075 4.857602027990794 11.604472299018994
7979 7979 1 0 4.666680028768711 4.14520443159768 13.87550707965393
7980 7980 1 0 13.875975143008588 12.10431937204926 7.535664110888513
7981 7981 1 0 10.410056946570233 1.6939236298088114 5.968152008916698
7982 7982 1 0 7.755740781518358 9.5152210031837 13.974781198227411
7983 7983 1 0 12.263909365822505 2.4792677352921118 11.788450654470164
7984 7984 1 0 0.5797834448013103 9.834523618840805 8.156940283976807
7985 7985 1 0 9.086297366651413 13.586395773322602 0.36338183221667364
7986 7986 1 0 6.073936136727692 13.87358781920061 0.2840982750779114
7987 7987 1 0 7.120456592058468 3.7802331152901663 13.23816309979002
7988 7988 1 0 7.536646181541588 7.307857295802604 7.087016438434403
7989 7989 1 0 13.740242401388059 7.453435599732076 12.495064460890404
7990 7990 1 0 5.049127349617646 13.330960861535308 1.1290281253245253
7991 7991 1 0 6.905619918243817 9.282193798139492 9.895186314845695
7992 7992 1 0 5.815380460605139 0.7299338966740807 13.791469731305444
7993 7993 1 0 7.265603898469015 12.151884939107621 2.090806150664898
7994 7994 1 0 11.657562611556482 8.297630855975688 12.668895379723049
7995 7995 1 0 3.2587806078564894 11.67814466207093 13.158851897016364
7996 7996 1 0 6.726279513766417 4.467832576925107 10.082367606609585
7997 7997 1 0 11.410347407754958 0.10337001541216571 3.02103881344438
7998 7998 1 0 4.234053407121862 6.885390961798237 3.039710495127614
7999 7999 1 0 9.763959412217156 14.006837883280967 12.378011490690463
8000 8000 1 0 1.9995898668977568 1.78578212527191 0.5957088607613921
8001 8001 1 0 7.351716758687548 8.58844691091154 0.6031756190956403
8002 8002 1 0 8.355841186148268 12.310755916526237 9.91495055504133
8003 8003 1 0 4.610975135863133 13.525866012856163 0.6342059864088588
8004 8004 1 0 5.2041743181571665 13.875100925942972 11.867895562812034
8005 8005 1 0 4.02001705181174 8.51467564860204 13.314313253849136
8006 8006 1 0 3.6042375564594518 2.6479826345850386 0.9232958195832704
8007 8007 1 0 9.631922406143614 0.5627361140117764 12.203154831729671
8008 8008 1 0 5.979245908473334 10.996697044056843 9.584227770104539
8009 8009 1 0 7.727788916607467 2.0843650580059356 5.297858374961465
8010 8010 1 0 10.553999619700024 0.34630378567593295 3.7623826924631416
8011 8011 1 0 4.492031091152126 8.658044830444911 4.7429360610707985
8012 8012 1 0 12.096615251384119 10.447741052689647 6.055206627110051
8013 8013 1 0 7.593339772237978 5.388365011520638 7.24650312607745
8014 8014 1 0 13.047921230228644 12.02497487623286 7.165146767104579
8015 8015 1 0 7.667366188820258 9.557941199186816 8.697066656818505
8016 8016 1 0 0.8605251434539859 0.008584819893572111 5.581540743099393
8017 8017 1 0 11.979633701638225 4.402934756608438 11.460509338606752
8018 8018 1 0 6.636744043791219 1.3155625030778295 12.273368118995123
8019 8019 1 0 8.773258972611947 5.350933195183622 5.303420267518105
8020 8020 1 0 10.987432274280993 1.817222178165964 4.079725029787181
8021 8021 1 0 0.16608657171642935 12.74927921947282 3.6396876777065095
8022 8022 1 0 7.331510532991539 3.9880465175049986 8.012401133108861
8023 8023 1 0 11.1866906567458 6.1405286822495215 3.165702539376195
8024 8024 1 0 10.203971197166714 11.127346535937777 13.66004986524304
8025 8025 1 0 1.1963868557069122 4.250605712587239 5.215311274937495
8026 8026 1 0 4.862017055210443 10.304520732028177 1.9278114068366932
8027 8027 1 0 4.452565290891049 2.074607669460262 7.538359101801308
8028 8028 1 0 2.061373175790183 12.092173726771973 8.593270367235801
8029 8029 1 0 12.677157612786628 13.670212800290782 12.631070180940771
8030 8030 1 0 5.809512392292204 10.870321922153975 11.248819389164845
8031 8031 1 0 12.860136683128747 5.071216435869529 8.627417812526526
8032 8032 1 0 9.145491280814756 3.712764237493886 6.4585020778182285
8033 8033 1 0 4.117346421634922 4.577263618719251 14.00652783880677
8034 8034 1 0 2.2070978437029654 9.613067989400461 1.5595144716617328
8035 8035 1 0 7.720759189873703 7.557147417997659 6.8186676461162445
8036 8036 1 0 1.475705578460158 9.916505273258588 13.022445390839717
8037 8037 1 0 9.463045636195062 2.1746571926354377 9.987436817820363
8038 8038 1 0 13.247725915483134 8.83985543208686 9.062048079565438
8039 8039 1 0 0.7139928793419777 7.0350695197589515 11.550657315931591
8040 8040 1 0 10.866137500282116 3.5478680631818533 11.832424328728855
8041 8041 1 0 13.82400264276514 4.506393625479793 13.709292972823842
8042 8042 1 0 3.1696616685677172 9.276321325028064 3.495100630929307
8043 8043 1 0 13.558592539004705 7.805695562996937 10.92622459298552
8044 8044 1 0 9.960923199280673 9.035194015551811 7.05578266002947
8045 8045 1 0 10.556998627458533 12.835789309081262 11.769740760789201
8046 8046 1 0 7.010580021457762 8.934196180136013 6.635481073686211
8047 8047 1 0 7.349779983171476 9.557753004556707 9.250954657331205
8048 8048 1 0 5.584074675027524 2.8688686246185706 11.81239616918868
8049 8049 1 0 10.543914322642468 3.0792322270016492 9.079376960635399
8050 8050 1 0 10.758026085474013 2.727060651828561 13.472620188990579
8051 8051 1 0 1.127986694673601 1.2183165216579352 4.282485733472277
8052 8052 1 0 4.881995058867894 2.2521766897871296 0.19856642801230667
8053 8053 1 0 2.350651953695011 3.553884995115434 9.896657849828413
8054 8054 1 0 2.6561710522129243 4.0383937842558915 11.851112441559323
8055 8055 1 0 7.4618994649236825 6.425811203089093 5.270689795066599
8056 8056 1 0 7.855224192478236 0.4196269743407566 9.68331358978745
8057 8057 1 0 3.006047699722484 2.0766809647807296 3.2428180749666122
8058 8058 1 0 2.6750739392081297 2.533479155563504 9.08185924268792
8059 8059 1 0 4.90928897613448 11.768672927330162 8.089676537548396
8060 8060 1 0 4.30277969372493 6.716451799113967 1.3872628630357604
8061 8061 1 0 11.7237587852998 11.732391985337575 13.371939381359375
8062 8062 1 0 2.03370088160007 11.856280394928676 9.012297053728403
8063 8063 1 0 1.469284256000947 13.338431966038444 9.935157780916743
8064 8064 1 0 6.513262718810192 10.922336097114968 12.387445154521544
8065 8065 1 0 11.239403783545919 0.3914610330885801 10.413388500221373
8066 8066 1 0 8.631087011364823 8.588955698279419 12.194602912115155
8067 8067 1 0 2.963950072006264 2.6011968121112 10.365079407500298
8068 8068 1 0 0.19422653742737384 2.445045381458521 6.543271933782029
8069 8069 1 0 4.492456624921708 14.018134129795666 5.5783530666600205
8070 8070 1 0 7.100003346421535 5.321910788056416 4.499559257129231
8071 8071 1 0 4.349865606334431 10.687370031382683 13.237022688846544
8072 8072 1 0 9.042007013925659 9.714599440819839 4.225800765378928
8073 8073 1 0 6.33467859663229 12.207703951779894 6.224272406752851
8074 8074 1 0 5.969339138301791 11.251474036667913 11.186696757131173
8075 8075 1 0 10.790980200891818 3.264494059953694 10.049483905564177
8076 8076 1 0 2.681038008996118 1.240899405644067 11.4075352126181
8077 8077 1 0 7.514452219908565 13.156603810548964 1.0959619795833122
8078 8078 1 0 5.969711969763322 8.538360209403859 6.32219384110675
8079 8079 1 0 13.33171653766121 4.362890985007021 8.971948695364308
8080 8080 1 0 3.321144926139224 5.153300371499435 3.5762224045635245
8081 8081 1 0 1.8455992055507895 4.141712183235809 1.2908478303860909
8082 8082 1 0 0.21202161680548282 3.856579380420863 13.47922228982161
8083 8083 1 0 12.55480107362962 0.3946693438564679 3.1793530071149605
8084 8084 1 0 13.801525817544709 13.64093284434128 5.024836143214751
8085 8085 1 0 2.3519608762410327 1.1753321620365205 2.766209583915416
8086 8086 1 0 2.983344655600154 7.609158758609687 2.277350665056051
8087 8087 1 0 7.098734137583083 10.179876150162084 4.916831398025451
8088 8088 1 0 4.497846953034026 6.551575074480476 4.259208921230553
8089 8089 1 0 13.471840555491646 5.699032592895017 9.534205031726769
8090 8090 1 0 6.711566166471762 6.97450601480128 1.2099999772511316
8091 8091 1 0 9.115859282977649 4.114358426066542 1.502417448172732
8092 8092 1 0 7.807038969061325 7.536854823176657 8.783418559700245
8093 8093 1 0 1.8287978517156707 1.0134118624015604 9.640060373330448
8094 8094 1 0 12.238369869812804 2.618928057172675 12.292668706229865
8095 8095 1 0 3.3060870166590473 6.5386378017241995 1.3734541053607077
8096 8096 1 0 5.091608601625701 10.884317919599434 10.829932289942224
8097 8097 1 0 6.0186761578079 9.101667478723796 6.256586923205052
8098 8098 1 0 10.482866197798998 8.974541921020844 13.188885021059539
8099 8099 1 0 6.311988883253281 2.555093656665892 6.954086485442402
8100 8100 1 0 1.0878240562925237 6.335694172739046 10.232978195128139
8101 8101 1 0 13.694198925604566 8.658786913007317 1.2279177847950609
8102 8102 1 0 8.468656321522436 3.861330002871837 8.611501667729494
8103 8103 1 0 12.041728135987109 6.116195917305744 8.256549793240428
8104 8104 1 0 2.035386673550586 12.330815796814342 2.111451668911554
8105 8105 1 0 4.116171240324677 5.2001318122562035 11.584317619783166
8106 8106 1 0 1.9975301165764232 13.22325015673003 10.188737095149913
8107 8107 1 0 13.457740045599088 3.7779941370875436 13.50360375852888
8108 8108 1 0 5.672136832869988 10.003614469506381 5.977250296546712
8109 8109 1 0 7.754650156943567 10.004795995191406 7.315514378754107
8110 8110 1 0 2.8494681816928957 3.8580144836145482 9.298964844485889
8111 8111 1 0 10.780681350030923 14.043503822225075 11.500464370433372
8112 8112 1 0 2.5473966645438786 6.567075390702635 12.295535669952407
8113 8113 1 0 1.9003704475622043 12.077121783909474 4.886702498241869
8114 8114 1 0 12.84122233945707 5.8907083475567195 2.8457562503244844
8115 8115 1 0 1.2555404320758352 3.1510429514241824 7.562972861908877
8116 8116 1 0 2.0029527070275828 9.914790451387596 2.27650373096119
8117 8117 1 0 8.52674633000555 11.82617879079659 12.891076840952142
8118 8118 1 0 3.465614383515441 2.128376362093477 12.028444494893208
8119 8119 1 0 6.512308674247371 1.528092990488533 12.94227405650607
8120 8120 1 0 13.944531031285079 4.086932242895198 1.0294434303185651
8121 8121 1 0 13.137506089498874 4.471484547230325 5.6372966993351294
8122 8122 1 0 2.233147024389558 8.129693972218526 5.225126261988121
8123 8123 1 0 2.6758252613152713 13.757480243632887 0.6992727616793859
8124 8124 1 0 8.853159736962864 5.47276400681613 9.363466109406383
8125 8125 1 0 10.389482830128614 11.894751907908883 0.8615438547818831
8126 8126 1 0 4.186806501376475 1.662651467096528 0.16273094452332887
8127 8127 1 0 9.603769489718717 4.9476415531904285 10.866924851329847
8128 8128 1 0 11.128903618390869 8.089875127108602 1.0397833437066972
8129 8129 1 0 3.5447453489127683 10.762721416825809 4.013052238209188
8130 8130 1 0 8.377447950425005 4.8397514565054 13.653851808891785
8131 8131 1 0 9.275586375849715 10.065927154830266 4.299616640532962
8132 8132 1 0 0.33288312458163466 0.679956788214215 2.250701871476761
8133 8133 1 0 4.302643896708998 6.283326289235849 6.291815352665084
8134 8134 1 0 6.900626749111111 5.415992750850979 10.774084806585137
8135 8135 1 0 1.5818169616419857 9.324670139373934 13.579007335978401
8136 8136 1 0 13.940490000646237 13.081842061425721 5.188472427956532
8137 8137 1 0 9.599101773902767 12.937506943557855 5.921748800657086
8138 8138 1 0 4.411250200436365 0.9028631237367722 11.050197863878841
8139 8139 1 0 6.037599663891257 4.030247311963559 9.846463108401899
8140 8140 1 0 4.776287563129658 1.400346830973503 9.720186936244884
8141 8141 1 0 3.152146661495217 10.417396127372044 5.41957886087307
8142 8142 1 0 12.559647587788785 4.6519566080024655 7.695392729857863
8143 8143 1 0 8.781860246921253 2.2202283925088144 0.5137335663072352
8144 8144 1 0 11.863472152550441 9.318853773927923 2.6114960183493996
8145 8145 1 0 4.461874750932214 10.124016333937773 8.15701878622638
8146 8146 1 0 11.824589211998921 0.6061764447672418 11.839666514487625
8147 8147 1 0 0.44637660786195854 10.87511524544261 4.011971450952935
8148 8148 1 0 7.453138868962055 0.857252504930171 9.662316641955794
8149 8149 1 0 2.4314500151947294 13.47442020973706 3.900449837908839
8150 8150 1 0 5.303014521133624 13.465421745622857 13.232343531109281
8151 8151 1 0 2.3075513155720855 0.9429224486967435 4.832853475126998
8152 8152 1 0 4.961907211296376 7.679649727371962 5.196699741255102
8153 8153 1 0 9.527557809348881 3.490372680959893 1.8310279903855526
8154 8154 1 0 14.004133461806868 13.239193183640333 7.307466329300601
8155 8155 1 0 8.395361851531513 8.307246914899592 1.5426684722563777
8156 8156 1 0 9.165663483979817 7.881052592620836 8.628556239427494
8157 8157 1 0 8.208143829674796 6.242202142966311 7.320895675051992
8158 8158 1 0 8.017258276164256 2.8828050898814306 11.009724551182913
8159 8159 1 0 1.7577585008069725 5.590243124936174 8.897876815023622
8160 8160 1 0 5.932230188591736 12.416438806472899 6.30321703168492
8161 8161 1 0 1.790018748200032 10.252790210614883 0.6738384930416288
8162 8162 1 0 6.631184654695426 9.069285541435011 1.6318075932007696
8163 8163 1 0 4.220436453449025 1.6106135549642844 9.826016499561208
8164 8164 1 0 8.494982416901028 13.156652846495616 6.842523446173567
8165 8165 1 0 13.450216242191742 8.43698442186398 8.67702353105175
8166 8166 1 0 1.179625276082026 13.688082955637466 12.381844595558748
8167 8167 1 0 12.613090042253102 13.951491477828768 1.1111468575069194
8168 8168 1 0 4.003218755681004 6.0136593467392485 7.559436939457067
8169 8169 1 0 10.385025765782881 9.159782742133176 5.116884418510275
8170 8170 1 0 6.263485347737519 12.210454001152316 6.534600328037259
8171 8171 1 0 12.573853009901981 10.181265443160182 4.938676554187617
8172 8172 1 0 2.172875100704964 1.4866385059619636 2.978635770320831
8173 8173 1 0 8.003332507631987 6.859221135803482 12.053765683624455
8174 8174 1 0 8.666788624598846 10.09876777740412 6.905094522314031
8175 8175 1 0 1.0350346400983075 7.732403777073463 3.3412953918801414
8176 8176 1 0 5.014591404486563 10.702966403949297 9.90699653813505
8177 8177 1 0 9.349614090860786 9.967501059996952 5.589516240474889
8178 8178 1 0 2.4573471777293974 12.979945991592729 3.2201684803115924
8179 8179 1 0 9.219237634152247 10.192080290492946 13.380157695828016
8180 8180 1 0 11.974701873105904 8.248425659054833 10.782059805984883
8181 8181 1 0 7.570570773505556 9.610646370671214 4.567371801798393
8182 8182 1 0 10.938304771657233 1.2245469358059364 12.495374711863299
8183 8183 1 0 13.208429949004215 11.29845492247552 10.074733668153636
8184 8184 1 0 5.553526762975326 1.5784411867625607 13.532667179659175
8185 8185 1 0 11.631660253785897 6.578959136569292 6.2565111582694675
8186 8186 1 0 1.6228080374672087 6.90448486652012 6.134379705567086
8187 8187 1 0 7.452910566892857 11.690715665733133 4.717874394804569
8188 8188 1 0 6.47828132744909 13.506911066968371 13.619736942626679
8189 8189 1 0 3.859882760746668 10.11672818120785 6.782344754070761
8190 8190 1 0 1.9276172489275463 14.003152458916876 13.653005660925343
8191 8191 1 0 2.4272834766227347 2.051845954600706 10.740146743601091
8192 8192 1 0 13.157402827474279 9.25907122317298 6.383592649405289
8193 8193 1 0 8.313718908201372 3.4002009347839275 2.3162791703881602
8194 8194 1 0 10.549906828861017 9.624771485663048 7.593462107047602
8195 8195 1 0 7.8012947223208355 2.0524038431398473 13.12077512834297
8196 8196 1 0 12.054932281025172 2.6754875039685078 7.139215888048186
8197 8197 1 0 3.565223609814129 12.963253856357476 9.106236725745438
8198 8198 1 0 2.0411592969764465 6.921071749592028 4.803728751492262
8199 8199 1 0 2.3462488566459867 1.1190250391699286 2.6503599308896297
8200 8200 1 0 6.246099989798512 10.76258818520472 6.354327875148015
8201 8201 1 0 5.3738567863504185 0.8029059423481424 4.340026713687594
8202 8202 1 0 1.0201303764821619 9.079330204103611 12.45247317953062
8203 8203 1 0 13.764520258388089 7.105685097308319 9.119207390559238
8204 8204 1 0 3.167440576147459 3.470627789105843 11.3090845352035
8205 8205 1 0 11.090502021689547 3.255036975554587 2.441422537373522
8206 8206 1 0 7.0118130278932815 6.65970362236749 5.629913833665242
8207 8207 1 0 12.40283546610089 10.826288800295446 8.476875397007253
8208 8208 1 0 6.429416264090663 0.33093765111849616 11.53299641428964
8209 8209 1 0 9.915876444492296 1.237444677169916 2.1445105365198995
8210 8210 1 0 0.5346361397294082 2.102058401202418 7.147385524455552
8211 8211 1 0 5.526197062857707 3.62154456296848 7.467024568090948
8212 8212 1 0 10.684417706489972 13.194841024017634 13.194170020780168
8213 8213 1 0 8.548237516080041 0.02975581047878586 6.597222894431203
8214 8214 1 0 1.5609250780168225 1.9432362236953986 8.623699850468373
8215 8215 1 0 2.33316752833864 7.494532894196005 7.6184933446307594
8216 8216 1 0 8.617224319954317 4.933896134446362 6.352755071439674
8217 8217 1 0 0.4309075641833534 5.301342761469457 9.929936529890977
8218 8218 1 0 6.31892408739383 11.940174161984746 0.443165936246532
8219 8219 1 0 6.1009325007682875 12.134331536803323 0.6559990703863543
8220 8220 1 0 9.47904593840528 3.791820326153406 4.400735634423913
8221 8221 1 0 2.320452971099271 2.684617712360845 13.565011504777575
8222 8222 1 0 10.793734941943448 7.496177479926799 11.463112896132175
8223 8223 1 0 10.845345012737027 5.200078782901064 5.645369671915295
8224 8224 1 0 11.398351902459718 13.507889640879124 5.179954806079192
8225 8225 1 0 3.2951382969736893 12.094198537603292 7.087283541618351
8226 8226 1 0 13.410691505741534 8.47519865804467 2.344707478281692
8227 8227 1 0 3.44169576531863 11.130754759140293 3.356250460801755
8228 8228 1 0 12.79995301290668 2.8458696950977456 7.583109311840454
8229 8229 1 0 5.8084193541861975 5.880978181811297 6.433914481849185
8230 8230 1 0 4.388708254589796 7.308236707205915 12.317226526206301
8231 8231 1 0 7.24783649120056 4.625889015399698 12.983119642852303
8232 8232 1 0 7.805373748503862 2.640371137278617 10.994883689403363
8233 8233 1 0 13.969787617272159 10.577664158783543 9.406383403634837
8234 8234 1 0 8.043168974704908 13.481213614601215 10.816383367382835
8235 8235 1 0 3.079491746868012 3.8181599757044262 12.612861227087835
8236 8236 1 0 5.201458696116978 6.760238905308903 9.945267368728889
8237 8237 1 0 10.400563178459588 3.3962934449502282 3.4567774861477223
8238 8238 1 0 3.0400031758582386 4.944042826169462 5.976382927829369
8239 8239 1 0 5.020139577586996 2.03837825132031 1.207805232197195
8240 8240 1 0 10.545198592611094 6.373848358996455 6.439420969782229
8241 8241 1 0 12.148520946089725 13.0480873254599 9.79372129041983
8242 8242 1 0 11.873330676262638 10.173787573529129 3.3738989624527944
8243 8243 1 0 1.9854453114765014 8.955506344648649 10.345937092374587
8244 8244 1 0 4.093864397711761 0.06808902226439875 11.41312488510682
8245 8245 1 0 1.4056878735181557 9.875809776258725 10.637022279179561
8246 8246 1 0 9.77908862071687 13.082624075248217 1.6620932907976944
8247 8247 1 0 1.39172933869595 5.868186767939474 10.769708735696977
8248 8248 1 0 11.251961028650635 7.687331389348968 1.5542782161473911
8249 8249 1 0 3.0102927967990434 12.526787985940974 6.577948479604529
8250 8250 1 0 2.5041080877229542 9.672176779150325 8.174300901297812
8251 8251 1 0 9.926128313381634 4.814950775371245 7.335353892150851
8252 8252 1 0 2.903803868912498 13.554062832602101 3.726545190056841
8253 8253 1 0 11.509034115301906 1.268968496175651 3.576672729640601
8254 8254 1 0 13.545039969919667 7.721027679562415 3.731369445700442
8255 8255 1 0 12.596410383807068 8.752321804911364 7.692545850490053
8256 8256 1 0 4.652793008362993 4.3100187155928955 7.7093570124946
8257 8257 1 0 4.387801261195446 10.420886024708834 9.179624574970548
8258 8258 1 0 5.737796036518687 3.0761612926898074 3.763768618825423
8259 8259 1 0 7.618367324553551 5.496278674751236 12.233633136441082
8260 8260 1 0 7.679361362022075 4.095219637456595 14.062904945206443
8261 8261 1 0 13.535880476552164 12.353974949480966 6.190458832400725
8262 8262 1 0 5.798378113266296 3.0536886723646357 6.580272173803232
8263 8263 1 0 7.8513154659734585 2.2764114341339954 0.007858911216601532
8264 8264 1 0 5.637453916640453 8.268267330915043 8.51631481478381
8265 8265 1 0 9.563931724091772 0.4384604052060054 3.7857478888222897
8266 8266 1 0 6.061671406635256 2.4924701732003536 10.924691706271625
8267 8267 1 0 7.51575526813301 0.2039655467427373 9.923587848169348
8268 8268 1 0 3.8597781214313995 10.855289545301034 10.964650563562703
8269 8269 1 0 13.098302299447676 8.271142935669 4.313462575630423
8270 8270 1 0 3.2364682751086447 3.963065589139021 2.143648798175892
8271 8271 1 0 13.101672036804365 13.265220900704833 8.949911020324292
8272 8272 1 0 9.353937282174607 11.476889726144638 2.838333261209029
8273 8273 1 0 9.25456855599286 12.323156455027931 8.944950722627961
8274 8274 1 0 8.498795635785747 5.407753434909957 0.3225360913657684
8275 8275 1 0 4.978284313149899 9.73896990388183 8.995464580763285
8276 8276 1 0 11.46765756471751 11.050516880484023 10.080063600050721
8277 8277 1 0 0.5253050572168175 4.2991166367997815 13.505058982273889
8278 8278 1 0 6.413633236945802 4.9070846741679714 9.825441772864743
8279 8279 1 0 12.893738303980745 10.69969279803262 9.136370657411886
8280 8280 1 0 9.672907632931596 9.600224033282467 3.8092822136726983
8281 8281 1 0 1.011885328932813 7.658602762816241 2.375944674798184
8282 8282 1 0 8.768907551374946 9.167431794031799 5.751716959587851
8283 8283 1 0 8.965730197000369 6.982007773285614 12.272393579737864
8284 8284 1 0 12.49485202965417 0.8361282592804699 2.487044380118475
8285 8285 1 0 7.359961496451321 6.444303364314724 2.370396039747252
8286 8286 1 0 11.09775018227737 10.029895653406818 11.71126550072507
8287 8287 1 0 5.702673808005025 7.949272847616244 10.197944004451976
8288 8288 1 0 9.393015630662257 8.854338395026314 11.078520802372703
8289 8289 1 0 9.856401864482919 8.244398562604403 7.071302658799794
8290 8290 1 0 0.8747932942496747 2.494045078342976 7.0002941228083095
8291 8291 1 0 1.6969121928969386 6.928035572357092 11.373347849855312
8292 8292 1 0 11.808321266171228 13.330211979108181 8.37600758804461
8293 8293 1 0 7.277854665054188 1.2186775601398574 13.654795278763967
8294 8294 1 0 7.875802290686365 13.27455024788917 5.970759351924773
8295 8295 1 0 2.180715032646041 10.578825995659079 3.4291661466830643
8296 8296 1 0 11.851191692641585 4.93119891816863 13.923534382836394
8297 8297 1 0 6.817482785877311 1.263623641955132 0.3781311856798907
8298 8298 1 0 2.847369806157524 13.830650491965297 5.547225699682991
8299 8299 1 0 5.29224715506053 12.9308894264472 2.666656498338991
8300 8300 1 0 11.018041097335585 11.410121350414117 10.20825800818907
8301 8301 1 0 9.306402476599605 9.06151128065179 7.97991974346702
8302 8302 1 0 7.6846275710195195 0.9329087158461575 9.661004441769773
8303 8303 1 0 0.6825206803940769 10.35309011787237 3.347990446862497
8304 8304 1 0 1.0576031416827703 2.3631120094308105 6.629694832172987
8305 8305 1 0 1.9921382098486737 4.9415112922305315 12.342731799393954
8306 8306 1 0 8.282074970000414 1.9664977701607453 6.758444312103799
8307 8307 1 0 6.5808982125226745 9.220844705756516 10.03654118633628
8308 8308 1 0 9.23947622756187 10.827557190927905 11.357269337926008
8309 8309 1 0 5.288552000102388 9.508185337152403 13.200783434340641
8310 8310 1 0 4.3945262641518275 6.775616412161947 8.502957477879992
8311 8311 1 0 2.935418787777786 2.6436669293811783 13.323259493003253
8312 8312 1 0 12.616729050275387 1.4156766755943675 13.266236271713831
8313 8313 1 0 13.247974108412473 1.5256445613736922 13.564642678037965
8314 8314 1 0 5.387853970511555 10.563572540188439 7.997974940073373
8315 8315 1 0 0.6802570199971723 4.042134059167206 0.439005861394353
8316 8316 1 0 1.2416955449915854 5.419576189249711 13.831188131024955
8317 8317 1 0 8.649304860891904 7.594985969142711 0.8734930213312088
8318 8318 1 0 6.315848746402231 5.966808726242514 6.279406749682245
8319 8319 1 0 10.856756944502827 5.0248532834430515 13.73994997371914
8320 8320 1 0 4.521303217847456 7.478135840173276 5.2685421205690375
8321 8321 1 0 0.3928178532093472 10.065564857309695 9.453785948724184
8322 8322 1 0 9.233378373092833 11.143661264513117 5.202627150354952
8323 8323 1 0 6.396952128857798 11.973773198700407 0.8788179791781512
8324 8324 1 0 10.811834427162145 11.158257220425654 4.395457416150986
8325 8325 1 0 10.306798122867836 1.6388112565255053 2.9028566890981478
8326 8326 1 0 1.5680427771965817 13.255182063152951 3.7342134193526584
8327 8327 1 0 2.496632665838402 9.322047622838943 10.449843414808077
8328 8328 1 0 9.736178335225485 4.3988214391842275 5.28425540684681
8329 8329 1 0 8.5025560258558 6.651206324219945 3.7959259938697
8330 8330 1 0 9.40908885645258 2.9337125576551886 4.109010407140356
8331 8331 1 0 7.57277941117324 12.265424937986548 7.827649307192453
8332 8332 1 0 0.07225848674949958 13.460146484673801 11.830368424661627
8333 8333 1 0 11.114376943243194 3.954519631449416 10.932993132226796
8334 8334 1 0 4.834183938167589 1.6382547417061721 6.714788494826653
8335 8335 1 0 10.368492442847037 0.27876834300920317 7.66675096842702
8336 8336 1 0 10.131750464050528 0.04982546229437357 8.58745535518698
8337 8337 1 0 1.8267155847043008 2.048844003366508 10.799648684531967
8338 8338 1 0 4.886006181641705 9.880430229914477 2.8655021442718107
8339 8339 1 0 1.4390458632947627 5.225476801600823 2.289794353906076
8340 8340 1 0 12.433689000943806 4.0973114535895565 3.4886444190020676
8341 8341 1 0 3.7774481713806893 6.164157610153384 13.322132913593908
8342 8342 1 0 12.37304885580897 9.989413949463994 11.597916853686543
8343 8343 1 0 5.9379279792586 2.6033310610650053 5.153459564157249
8344 8344 1 0 13.298960146245147 6.739164040876014 5.501502872151233
8345 8345 1 0 2.6028147764765315 4.867485116658076 10.06589656971162
8346 8346 1 0 3.6039848755285657 5.655065387572308 11.883253931759258